     Program PWSCF v.7.3 starts on 15Dec2024 at 21:51:57

     Waiting for input...
     Reading input from standard input
     Message from routine read_cards :
     DEPRECATED: no units specified in ATOMIC_POSITIONS card
     Message from routine read_cards :
     ATOMIC_POSITIONS: units set to alat

     Current dimensions of program PWSCF are:
     Max number of different atomic species (ntypx) = 10
     Max number of k-points (npk) =  40000
     Max angular momentum in pseudopotentials (lmaxx) =  4
     Message from routine iosys:
     BEWARE:  force calculation with tetrahedra (not recommanded)
     Message from routine iosys:
     BEWARE: stress calculation with tetrahedra (not recommanded)
     [opt_tetra]  Optimized tetrahedron method is used.

     Using Slab Decomposition

     bravais-lattice index     =            2
     lattice parameter (alat)  =      10.2100  a.u.
     unit-cell volume          =     266.0831 (a.u.)^3
     number of atoms/cell      =            2
     number of atomic types    =            1
     number of electrons       =         8.00
     number of Kohn-Sham states=            8
     kinetic-energy cutoff     =      60.0000  Ry
     charge density cutoff     =     240.0000  Ry
     scf convergence threshold =      1.0E-06
     mixing beta               =       0.7000
     number of iterations used =            8  plain     mixing
     energy convergence thresh.=      1.0E-04
     force convergence thresh. =      1.0E-03
     press convergence thresh. =      5.0E-01
     Exchange-correlation= SLA  PW   NOGX NOGC
                           (   1   4   0   0   0   0   0)
     nstep                     =           50

     celldm(1)=  10.210000  celldm(2)=   0.000000  celldm(3)=   0.000000
     celldm(4)=   0.000000  celldm(5)=   0.000000  celldm(6)=   0.000000

     crystal axes: (cart. coord. in units of alat)
               a(1) = (  -0.500000   0.000000   0.500000 )
               a(2) = (   0.000000   0.500000   0.500000 )
               a(3) = (  -0.500000   0.500000   0.000000 )

     reciprocal axes: (cart. coord. in units 2 pi/alat)
               b(1) = ( -1.000000 -1.000000  1.000000 )
               b(2) = (  1.000000  1.000000  1.000000 )
               b(3) = ( -1.000000  1.000000 -1.000000 )

     PseudoPot. # 1 for Si read from file:
     ./PSEUDO/Si.LDA.upf
     MD5 check sum: 9e2d726316af3d4752eea8ab0afbb951
     Pseudo is Norm-conserving + core correction, Zval =  4.0
     Generated using ONCVPSP code by D. R. Hamann
     Using radial grid of 1510 points,  6 beta functions with:
                l(1) =   0
                l(2) =   0
                l(3) =   1
                l(4) =   1
                l(5) =   2
                l(6) =   2

     atomic species   valence    mass     pseudopotential
     Si                4.00    28.76000     Si( 1.00)

     48 Sym. Ops., with inversion, found (24 have fractional translation)

   Cartesian axes

     site n.     atom                  positions (alat units)
         1        Si     tau(   1) = (   0.0000000   0.0000000   0.0000000  )
         2        Si     tau(   2) = (   0.2500000   0.2500000   0.2500000  )

     number of k points=    16 (tetrahedron method)
                       cart. coord. in units 2pi/alat
        k(    1) = (   0.0000000   0.0000000   0.0000000), wk =   0.0092593
        k(    2) = (  -0.1666667   0.1666667  -0.1666667), wk =   0.0740741
        k(    3) = (  -0.3333333   0.3333333  -0.3333333), wk =   0.0740741
        k(    4) = (   0.5000000  -0.5000000   0.5000000), wk =   0.0370370
        k(    5) = (   0.0000000   0.3333333   0.0000000), wk =   0.0555556
        k(    6) = (  -0.1666667   0.5000000  -0.1666667), wk =   0.2222222
        k(    7) = (   0.6666667  -0.3333333   0.6666667), wk =   0.2222222
        k(    8) = (   0.5000000  -0.1666667   0.5000000), wk =   0.2222222
        k(    9) = (   0.3333333   0.0000000   0.3333333), wk =   0.1111111
        k(   10) = (   0.0000000   0.6666667   0.0000000), wk =   0.0555556
        k(   11) = (   0.8333333  -0.1666667   0.8333333), wk =   0.2222222
        k(   12) = (   0.6666667   0.0000000   0.6666667), wk =   0.1111111
        k(   13) = (   0.0000000  -1.0000000   0.0000000), wk =   0.0277778
        k(   14) = (   0.6666667  -0.3333333   1.0000000), wk =   0.2222222
        k(   15) = (   0.5000000  -0.1666667   0.8333333), wk =   0.2222222
        k(   16) = (  -0.3333333  -1.0000000   0.0000000), wk =   0.1111111

     Initial potential from superposition of free atoms

     starting charge       7.9989, renormalised to       8.0000
     Starting wfcs are    8 randomized atomic wfcs

     Self-consistent Calculation

     iteration #  1     ecut=    60.00 Ry     beta= 0.70
     Davidson diagonalization with overlap
     ethr =  1.00E-02,  avg # of iterations =  4.1

     Threshold (ethr) on eigenvalues was too large:
     Diagonalizing with lowered threshold

     Davidson diagonalization with overlap
     ethr =  7.12E-04,  avg # of iterations =  1.8

     total energy              =     -17.04542233 Ry
     estimated scf accuracy    <       0.06092531 Ry

[...]

     End of self-consistent calculation

          k = 0.0000 0.0000 0.0000 (  2085 PWs)   bands (ev):

    -5.8635   6.2046   6.2046   6.2046   8.7423   8.7423   8.7423   9.5475

          k =-0.1667 0.1667-0.1667 (  2088 PWs)   bands (ev):

[...]

     the Fermi energy is     6.5405 ev

!    total energy              =     -17.04896868 Ry
     estimated scf accuracy    <       0.00000008 Ry

     The total energy is the sum of the following terms:
     one-electron contribution =       4.96491581 Ry
     hartree contribution      =       1.08659491 Ry
     xc contribution           =      -6.21727299 Ry
     ewald contribution        =     -16.88320641 Ry

     convergence has been achieved in   4 iterations

     Forces acting on atoms (cartesian axes, Ry/au):

     atom    1 type  1   force =     0.00000000    0.00000000    0.00000000
     atom    2 type  1   force =     0.00000000    0.00000000    0.00000000

     Total force =     0.000000     Total SCF correction =     0.000000

     Computing stress (Cartesian axis) and pressure

          total   stress  (Ry/bohr**3)                   (kbar)     P=       -4.05
  -0.00002751  -0.00000000  -0.00000000           -4.05       -0.00       -0.00
  -0.00000000  -0.00002751   0.00000000           -0.00       -4.05        0.00
  -0.00000000   0.00000000  -0.00002751           -0.00        0.00       -4.05

     BFGS Geometry Optimization
     Energy error            =      0.0E+00 Ry
     Gradient error          =      0.0E+00 Ry/Bohr
     Cell gradient error     =      4.0E+00 kbar

     number of scf cycles    =   1
     number of bfgs steps    =   0

     enthalpy           new  =     -17.0489686841 Ry

     new trust radius        =       0.0022440362 bohr
     new conv_thr            =       0.0000010000 Ry

     new unit-cell volume =    265.53437 a.u.^3 (    39.34813 Ang^3 )
     density =      2.42741 g/cm^3

CELL_PARAMETERS (alat= 10.21000000)
  -0.499656077   0.000000000   0.499656077
  -0.000000000   0.499656077   0.499656077
  -0.499656077   0.499656077   0.000000000

ATOMIC_POSITIONS (alat)
Si              -0.0000000000        0.0000000000        0.0000000000
Si               0.2498280385        0.2498280385        0.2498280385

     Writing config-only to output data dir ./tmp/vcrelax.save/ :
     XML data file
     NEW-OLD atomic charge density approx. for the potential

[...]

     Energy error            =      1.1E-05 Ry
     Gradient error          =      1.9E-32 Ry/Bohr
     Cell gradient error     =      1.7E+00 kbar

     number of scf cycles    =   2
     number of bfgs steps    =   1

     enthalpy           old  =     -17.0489686841 Ry
     enthalpy           new  =     -17.0489799566 Ry

     CASE: enthalpy          _new < enthalpy          _old

     new trust radius        =       0.0016832798 bohr
     new conv_thr            =       0.0000000100 Ry

     new unit-cell volume =    265.12314 a.u.^3 (    39.28720 Ang^3 )
     density =      2.43118 g/cm^3

[...]

ATOMIC_POSITIONS (alat)
Si              -0.0000000000        0.0000000000       -0.0000000000
Si               0.2496990036        0.2496990036        0.2496990036

     Writing config-only to output data dir ./tmp/vcrelax.save/ :
     XML data file
     NEW-OLD atomic charge density approx. for the potential

[...]

     Threshold (ethr) on eigenvalues was too large:
     Diagonalizing with lowered threshold

     Davidson diagonalization with overlap
     ethr =  8.62E-10,  avg # of iterations =  4.1

[...]

     Energy error            =      3.4E-06 Ry
     Gradient error          =      0.0E+00 Ry/Bohr
     Cell gradient error     =      4.7E-01 kbar

     bfgs converged in   3 scf cycles and   2 bfgs steps
     (criteria: energy <  1.0E-04 Ry, force <  1.0E-03 Ry/Bohr, cell <  5.0E-01 kbar)

     End of BFGS Geometry Optimization

     Final enthalpy           =     -17.0489833880 Ry

     File ./tmp/vcrelax.bfgs deleted, as requested
Begin final coordinates
     new unit-cell volume =    265.12314 a.u.^3 (    39.28720 Ang^3 )
     density =      2.43118 g/cm^3

CELL_PARAMETERS (alat= 10.21000000)
  -0.499398007   0.000000000   0.499398007
  -0.000000000   0.499398007   0.499398007
  -0.499398007   0.499398007   0.000000000

ATOMIC_POSITIONS (alat)
Si              -0.0000000000        0.0000000000       -0.0000000000
Si               0.2496990036        0.2496990036        0.2496990036
End final coordinates

     Writing config-only to output data dir ./tmp/vcrelax.save/ :
     XML data file

     Final scf calculation at the relaxed structure.
     The G-vectors are recalculated for the final unit cell
     Results may differ from those at the preceding step.

     Using Slab Decomposition

     bravais-lattice index     =            2
     lattice parameter (alat)  =      10.2100  a.u.
     unit-cell volume          =     265.1231 (a.u.)^3
     number of atoms/cell      =            2
     number of atomic types    =            1
     number of electrons       =         8.00
     number of Kohn-Sham states=            8
     kinetic-energy cutoff     =      60.0000  Ry
     charge density cutoff     =     240.0000  Ry
     scf convergence threshold =      1.0E-08
     mixing beta               =       0.7000
     number of iterations used =            8  plain     mixing
     press convergence thresh. =      5.0E-01
     Exchange-correlation= SLA  PW   NOGX NOGC
                           (   1   4   0   0   0   0   0)

     celldm(1)=  10.210000  celldm(2)=   0.000000  celldm(3)=   0.000000
     celldm(4)=   0.000000  celldm(5)=   0.000000  celldm(6)=   0.000000

     crystal axes: (cart. coord. in units of alat)
               a(1) = (  -0.499398   0.000000   0.499398 )
               a(2) = (  -0.000000   0.499398   0.499398 )
               a(3) = (  -0.499398   0.499398   0.000000 )

     reciprocal axes: (cart. coord. in units 2 pi/alat)
               b(1) = ( -1.001205 -1.001205  1.001205 )
               b(2) = (  1.001205  1.001205  1.001205 )
               b(3) = ( -1.001205  1.001205 -1.001205 )

     PseudoPot. # 1 for Si read from file:
     ./PSEUDO/Si.LDA.upf
     MD5 check sum: 9e2d726316af3d4752eea8ab0afbb951
     Pseudo is Norm-conserving + core correction, Zval =  4.0
     Generated using ONCVPSP code by D. R. Hamann
     Using radial grid of 1510 points,  6 beta functions with:
                l(1) =   0
                l(2) =   0
                l(3) =   1
                l(4) =   1
                l(5) =   2
                l(6) =   2

     atomic species   valence    mass     pseudopotential
     Si                4.00    28.76000     Si( 1.00)

     48 Sym. Ops., with inversion, found (24 have fractional translation)

   Cartesian axes

     site n.     atom                  positions (alat units)
         1        Si     tau(   1) = (  -0.0000000   0.0000000  -0.0000000  )
         2        Si     tau(   2) = (   0.2496990   0.2496990   0.2496990  )

     number of k points=    16 (tetrahedron method)
                       cart. coord. in units 2pi/alat
        k(    1) = (   0.0000000   0.0000000   0.0000000), wk =   0.0092593
        k(    2) = (  -0.1668676   0.1668676  -0.1668676), wk =   0.0740741
        k(    3) = (  -0.3337351   0.3337351  -0.3337351), wk =   0.0740741
        k(    4) = (   0.5006027  -0.5006027   0.5006027), wk =   0.0370370
        k(    5) = (   0.0000000   0.3337351   0.0000000), wk =   0.0555556
        k(    6) = (  -0.1668676   0.5006027  -0.1668676), wk =   0.2222222
        k(    7) = (   0.6674703  -0.3337351   0.6674703), wk =   0.2222222
        k(    8) = (   0.5006027  -0.1668676   0.5006027), wk =   0.2222222
        k(    9) = (   0.3337351   0.0000000   0.3337351), wk =   0.1111111
        k(   10) = (   0.0000000   0.6674703   0.0000000), wk =   0.0555556
        k(   11) = (   0.8343379  -0.1668676   0.8343379), wk =   0.2222222
        k(   12) = (   0.6674703   0.0000000   0.6674703), wk =   0.1111111
        k(   13) = (   0.0000000  -1.0012054   0.0000000), wk =   0.0277778
        k(   14) = (   0.6674703  -0.3337351   1.0012054), wk =   0.2222222
        k(   15) = (   0.5006027  -0.1668676   0.8343379), wk =   0.2222222
        k(   16) = (  -0.3337351  -1.0012054   0.0000000), wk =   0.1111111

     Initial potential from superposition of free atoms

     starting charge       7.9989, renormalised to       8.0000
     Starting wfcs are    8 randomized atomic wfcs

     Self-consistent Calculation

     iteration #  1     ecut=    60.00 Ry     beta= 0.70
     Davidson diagonalization with overlap
     c_bands:  1 eigenvalues not converged
     ethr =  1.00E-06,  avg # of iterations = 14.2

[...]

     total energy              =     -17.04898333 Ry
     estimated scf accuracy    <       0.00000005 Ry

     iteration #  6     ecut=    60.00 Ry     beta= 0.70
     Davidson diagonalization with overlap
     ethr =  6.34E-10,  avg # of iterations =  2.6

     End of self-consistent calculation

[...]

          k = 0.5006-0.1669 0.8343 (  2088 PWs)   bands (ev):

[...]

          k =-0.3337-1.0012 0.0000 (  2090 PWs)   bands (ev):

    -1.5136  -1.5136   2.5037   2.5037   8.9113   8.9113  12.9965  12.9965

     the Fermi energy is     6.5737 ev

!    total energy              =     -17.04898335 Ry
     estimated scf accuracy    <          1.4E-09 Ry

     The total energy is the sum of the following terms:
     one-electron contribution =       4.99245631 Ry
     hartree contribution      =       1.08362473 Ry
     xc contribution           =      -6.22150634 Ry
     ewald contribution        =     -16.90355805 Ry

     convergence has been achieved in   6 iterations

     Forces acting on atoms (cartesian axes, Ry/au):

     atom    1 type  1   force =     0.00000000    0.00000000    0.00000000
     atom    2 type  1   force =     0.00000000    0.00000000    0.00000000

     Total force =     0.000000     Total SCF correction =     0.000000

     Computing stress (Cartesian axis) and pressure

          total   stress  (Ry/bohr**3)                   (kbar)     P=       -0.48
  -0.00000329   0.00000000  -0.00000000           -0.48        0.00       -0.00
   0.00000000  -0.00000329   0.00000000            0.00       -0.48        0.00
  -0.00000000   0.00000000  -0.00000329           -0.00        0.00       -0.48

     Writing all to output data dir ./tmp/vcrelax.save/ :
     XML data file, charge density, pseudopotentials, collected wavefunctions

     General routines

   This run was terminated on:  21:52:13  15Dec2024

   JOB DONE.