     Program PWSCF v.7.3 starts on 14Dec2024 at 21:10:18

     Waiting for input...
     Reading input from standard input

     Current dimensions of program PWSCF are:
     Max number of different atomic species (ntypx) = 10
     Max number of k-points (npk) =  40000
     Max angular momentum in pseudopotentials (lmaxx) =  4
     Message from routine iosys:
     BEWARE:  force calculation with tetrahedra (not recommanded)
     Message from routine iosys:
     BEWARE: stress calculation with tetrahedra (not recommanded)

     Using Slab Decomposition

     bravais-lattice index     =            4
     lattice parameter (alat)  =       5.8260  a.u.
     unit-cell volume          =     195.5727 (a.u.)^3
     number of atoms/cell      =            3
     number of atomic types    =            2
     number of electrons       =         9.00
     number of Kohn-Sham states=            9
     kinetic-energy cutoff     =      60.0000  Ry
     charge density cutoff     =     240.0000  Ry
     scf convergence threshold =      1.0E-06
     mixing beta               =       0.7000
     number of iterations used =            8  plain     mixing
     Exchange-correlation= PBE
                           (   1   4   3   4   0   0   0)

     celldm(1)=   5.826000  celldm(2)=   0.000000  celldm(3)=   1.142000
     celldm(4)=   0.000000  celldm(5)=   0.000000  celldm(6)=   0.000000

     crystal axes: (cart. coord. in units of alat)
               a(1) = (   1.000000   0.000000   0.000000 )
               a(2) = (  -0.500000   0.866025   0.000000 )
               a(3) = (   0.000000   0.000000   1.142000 )

     reciprocal axes: (cart. coord. in units 2 pi/alat)
               b(1) = (  1.000000  0.577350 -0.000000 )
               b(2) = (  0.000000  1.154701  0.000000 )
               b(3) = (  0.000000 -0.000000  0.875657 )

     PseudoPot. # 1 for Li read from file:
     ./PSEUDO/Li_ONCV_PBE_sr.upf
     MD5 check sum: 50ff420e78310ffa21704f3361e624a4
     Pseudo is Norm-conserving, Zval =  3.0
     Generated using ONCVPSP code by D. R. Hamann
     Using radial grid of 1944 points,  4 beta functions with:
                l(1) =   0
                l(2) =   0
                l(3) =   1
                l(4) =   1

     PseudoPot. # 2 for B  read from file:
     ./PSEUDO/B_ONCV_PBE_sr.upf
     MD5 check sum: 12e13f68e8dc593c0a1d43390bab284b
     Pseudo is Norm-conserving + core correction, Zval =  3.0
     Generated using ONCVPSP code by D. R. Hamann
     Using radial grid of 1534 points,  4 beta functions with:
                l(1) =   0
                l(2) =   0
                l(3) =   1
                l(4) =   1

     atomic species   valence    mass     pseudopotential
     Li                3.00     6.94000     Li( 1.00)
     B                 3.00    10.81000     B ( 1.00)

     24 Sym. Ops., with inversion, found

   Cartesian axes

     site n.     atom                  positions (alat units)
         1        Li     tau(   1) = (   0.0000000   0.0000000   0.0000000  )
         2        B      tau(   2) = (   0.0000000   0.5773503   0.5710000  )
         3        B      tau(   3) = (   0.5000000   0.2886751   0.5710000  )

     number of k points=    50 (tetrahedron method)
                       cart. coord. in units 2pi/alat
        k(    1) = (   0.0000000   0.0000000   0.0000000), wk =   0.0039062
        k(    2) = (   0.0000000   0.0000000   0.1094571), wk =   0.0078125
        k(    3) = (   0.0000000   0.0000000   0.2189142), wk =   0.0078125
        k(    4) = (   0.0000000   0.0000000   0.3283713), wk =   0.0078125
        k(    5) = (   0.0000000   0.0000000  -0.4378284), wk =   0.0039062
        k(    6) = (   0.0000000   0.1443376   0.0000000), wk =   0.0234375
        k(    7) = (   0.0000000   0.1443376   0.1094571), wk =   0.0468750
        k(    8) = (   0.0000000   0.1443376   0.2189142), wk =   0.0468750
        k(    9) = (   0.0000000   0.1443376   0.3283713), wk =   0.0468750
        k(   10) = (   0.0000000   0.1443376  -0.4378284), wk =   0.0234375
        k(   11) = (   0.0000000   0.2886751   0.0000000), wk =   0.0234375
        k(   12) = (   0.0000000   0.2886751   0.1094571), wk =   0.0468750
        k(   13) = (   0.0000000   0.2886751   0.2189142), wk =   0.0468750
        k(   14) = (   0.0000000   0.2886751   0.3283713), wk =   0.0468750
        k(   15) = (   0.0000000   0.2886751  -0.4378284), wk =   0.0234375
        k(   16) = (   0.0000000   0.4330127   0.0000000), wk =   0.0234375
        k(   17) = (   0.0000000   0.4330127   0.1094571), wk =   0.0468750
        k(   18) = (   0.0000000   0.4330127   0.2189142), wk =   0.0468750
        k(   19) = (   0.0000000   0.4330127   0.3283713), wk =   0.0468750
        k(   20) = (   0.0000000   0.4330127  -0.4378284), wk =   0.0234375
        k(   21) = (   0.0000000  -0.5773503   0.0000000), wk =   0.0117188
        k(   22) = (   0.0000000  -0.5773503   0.1094571), wk =   0.0234375
        k(   23) = (   0.0000000  -0.5773503   0.2189142), wk =   0.0234375
        k(   24) = (   0.0000000  -0.5773503   0.3283713), wk =   0.0234375
        k(   25) = (   0.0000000  -0.5773503  -0.4378284), wk =   0.0117188
        k(   26) = (   0.1250000   0.2165064   0.0000000), wk =   0.0234375
        k(   27) = (   0.1250000   0.2165064   0.1094571), wk =   0.0468750
        k(   28) = (   0.1250000   0.2165064   0.2189142), wk =   0.0468750
        k(   29) = (   0.1250000   0.2165064   0.3283713), wk =   0.0468750
        k(   30) = (   0.1250000   0.2165064  -0.4378284), wk =   0.0234375
        k(   31) = (   0.1250000   0.3608439   0.0000000), wk =   0.0468750
        k(   32) = (   0.1250000   0.3608439   0.1094571), wk =   0.0937500
        k(   33) = (   0.1250000   0.3608439   0.2189142), wk =   0.0937500
        k(   34) = (   0.1250000   0.3608439   0.3283713), wk =   0.0937500
        k(   35) = (   0.1250000   0.3608439  -0.4378284), wk =   0.0468750
        k(   36) = (   0.1250000   0.5051815   0.0000000), wk =   0.0468750
        k(   37) = (   0.1250000   0.5051815   0.1094571), wk =   0.0937500
        k(   38) = (   0.1250000   0.5051815   0.2189142), wk =   0.0937500
        k(   39) = (   0.1250000   0.5051815   0.3283713), wk =   0.0937500
        k(   40) = (   0.1250000   0.5051815  -0.4378284), wk =   0.0468750
        k(   41) = (   0.2500000   0.4330127   0.0000000), wk =   0.0234375
        k(   42) = (   0.2500000   0.4330127   0.1094571), wk =   0.0468750
        k(   43) = (   0.2500000   0.4330127   0.2189142), wk =   0.0468750
        k(   44) = (   0.2500000   0.4330127   0.3283713), wk =   0.0468750
        k(   45) = (   0.2500000   0.4330127  -0.4378284), wk =   0.0234375
        k(   46) = (   0.2500000   0.5773503   0.0000000), wk =   0.0234375
        k(   47) = (   0.2500000   0.5773503   0.1094571), wk =   0.0468750
        k(   48) = (   0.2500000   0.5773503   0.2189142), wk =   0.0468750
        k(   49) = (   0.2500000   0.5773503   0.3283713), wk =   0.0468750
        k(   50) = (   0.2500000   0.5773503  -0.4378284), wk =   0.0234375

     Initial potential from superposition of free atoms

     starting charge       8.9949, renormalised to       9.0000
     Starting wfcs are   10 randomized atomic wfcs

     Self-consistent Calculation

     iteration #  1     ecut=    60.00 Ry     beta= 0.70
     Davidson diagonalization with overlap
     ethr =  1.00E-02,  avg # of iterations =  4.2

     total energy              =     -26.12367867 Ry
     estimated scf accuracy    <       0.14702221 Ry

[...]

     iteration #  4     ecut=    60.00 Ry     beta= 0.70
     Davidson diagonalization with overlap
     c_bands:  1 eigenvalues not converged
     ethr =  1.65E-06,  avg # of iterations =  7.6

     total energy              =     -26.16221276 Ry
     estimated scf accuracy    <       0.00001708 Ry

     iteration #  5     ecut=    60.00 Ry     beta= 0.70
     Davidson diagonalization with overlap
     ethr =  1.90E-07,  avg # of iterations =  1.9

     End of self-consistent calculation

          k = 0.0000 0.0000 0.0000 (  1511 PWs)   bands (ev):

   -40.1914  -6.0291   2.9726   5.8899   5.8899   9.9214  11.9096  11.9096
    14.1371

[...]

          k = 0.2500 0.5774-0.4378 (  1548 PWs)   bands (ev):

   -40.1776  -1.1343  -0.6283   1.1776   3.6622   5.1679  12.6402  15.1921
    18.0785

     the Fermi energy is     4.5834 ev

!    total energy              =     -26.16222780 Ry
     estimated scf accuracy    <       0.00000034 Ry

     The total energy is the sum of the following terms:
     one-electron contribution =      -3.47629042 Ry
     hartree contribution      =       3.86602680 Ry
     xc contribution           =      -8.10831194 Ry
     ewald contribution        =     -18.44365225 Ry

     convergence has been achieved in   5 iterations

     Forces acting on atoms (cartesian axes, Ry/au):

     atom    1 type  1   force =     0.00000000    0.00000000   -0.00000000
     atom    2 type  2   force =     0.00000000   -0.00000000    0.00000000
     atom    3 type  2   force =     0.00000000    0.00000000    0.00000000

     Total force =     0.000000     Total SCF correction =     0.000000

     Computing stress (Cartesian axis) and pressure

          total   stress  (Ry/bohr**3)                   (kbar)     P=     -120.11
  -0.00104395   0.00000000   0.00000000         -153.57        0.00        0.00
   0.00000000  -0.00104395   0.00000000            0.00     -153.57        0.00
   0.00000000   0.00000000  -0.00036156            0.00        0.00      -53.19

     Writing all to output data dir ./tmp/LiB2.save/ :
     XML data file, charge density, pseudopotentials, collected wavefunctions

     General routines

   This run was terminated on:  21:10:25  14Dec2024

   JOB DONE.