     Program PWSCF v.7.3 starts on 14Dec2024 at 22:11:51

     Waiting for input...
     Reading input from standard input

     Current dimensions of program PWSCF are:
     Max number of different atomic species (ntypx) = 10
     Max number of k-points (npk) =  40000
     Max angular momentum in pseudopotentials (lmaxx) =  4
     Message from routine iosys:
     BEWARE:  force calculation with tetrahedra (not recommanded)
     Message from routine iosys:
     BEWARE: stress calculation with tetrahedra (not recommanded)
     [opt_tetra]  Optimized tetrahedron method is used.

     Using Slab Decomposition

     bravais-lattice index     =            4
     lattice parameter (alat)  =       5.8260  a.u.
     unit-cell volume          =     195.5727 (a.u.)^3
     number of atoms/cell      =            3
     number of atomic types    =            2
     number of electrons       =         9.00
     number of Kohn-Sham states=            9
     kinetic-energy cutoff     =      80.0000  Ry
     charge density cutoff     =     320.0000  Ry
     scf convergence threshold =      1.0E-06
     mixing beta               =       0.7000
     number of iterations used =            8  plain     mixing
     energy convergence thresh.=      1.0E-04
     force convergence thresh. =      1.0E-03
     press convergence thresh. =      5.0E-01
     Exchange-correlation= PBE
                           (   1   4   3   4   0   0   0)
     nstep                     =           50

     celldm(1)=   5.826000  celldm(2)=   0.000000  celldm(3)=   1.142000
     celldm(4)=   0.000000  celldm(5)=   0.000000  celldm(6)=   0.000000

     crystal axes: (cart. coord. in units of alat)
               a(1) = (   1.000000   0.000000   0.000000 )
               a(2) = (  -0.500000   0.866025   0.000000 )
               a(3) = (   0.000000   0.000000   1.142000 )

     reciprocal axes: (cart. coord. in units 2 pi/alat)
               b(1) = (  1.000000  0.577350 -0.000000 )
               b(2) = (  0.000000  1.154701  0.000000 )
               b(3) = (  0.000000 -0.000000  0.875657 )

     PseudoPot. # 1 for Li read from file:
     ./PSEUDO/Li_ONCV_PBE_sr.upf
     MD5 check sum: 50ff420e78310ffa21704f3361e624a4
     Pseudo is Norm-conserving, Zval =  3.0
     Generated using ONCVPSP code by D. R. Hamann
     Using radial grid of 1944 points,  4 beta functions with:
                l(1) =   0
                l(2) =   0
                l(3) =   1
                l(4) =   1

     PseudoPot. # 2 for B  read from file:
     ./PSEUDO/B_ONCV_PBE_sr.upf
     MD5 check sum: 12e13f68e8dc593c0a1d43390bab284b
     Pseudo is Norm-conserving + core correction, Zval =  3.0
     Generated using ONCVPSP code by D. R. Hamann
     Using radial grid of 1534 points,  4 beta functions with:
                l(1) =   0
                l(2) =   0
                l(3) =   1
                l(4) =   1

     atomic species   valence    mass     pseudopotential
     Li                3.00     6.94000     Li( 1.00)
     B                 3.00    10.81000     B ( 1.00)

     24 Sym. Ops., with inversion, found

   Cartesian axes

     site n.     atom                  positions (alat units)
         1        Li     tau(   1) = (   0.0000000   0.0000000   0.0000000  )
         2        B      tau(   2) = (   0.0000000   0.5773503   0.5710000  )
         3        B      tau(   3) = (   0.5000000   0.2886751   0.5710000  )

     number of k points=    50 (tetrahedron method)
                       cart. coord. in units 2pi/alat
        k(    1) = (   0.0000000   0.0000000   0.0000000), wk =   0.0039062
        k(    2) = (   0.0000000   0.0000000   0.1094571), wk =   0.0078125
        k(    3) = (   0.0000000   0.0000000   0.2189142), wk =   0.0078125
        k(    4) = (   0.0000000   0.0000000   0.3283713), wk =   0.0078125
        k(    5) = (   0.0000000   0.0000000  -0.4378284), wk =   0.0039062
        k(    6) = (   0.0000000   0.1443376   0.0000000), wk =   0.0234375
        k(    7) = (   0.0000000   0.1443376   0.1094571), wk =   0.0468750
        k(    8) = (   0.0000000   0.1443376   0.2189142), wk =   0.0468750
        k(    9) = (   0.0000000   0.1443376   0.3283713), wk =   0.0468750
        k(   10) = (   0.0000000   0.1443376  -0.4378284), wk =   0.0234375
        k(   11) = (   0.0000000   0.2886751   0.0000000), wk =   0.0234375
        k(   12) = (   0.0000000   0.2886751   0.1094571), wk =   0.0468750
        k(   13) = (   0.0000000   0.2886751   0.2189142), wk =   0.0468750
        k(   14) = (   0.0000000   0.2886751   0.3283713), wk =   0.0468750
        k(   15) = (   0.0000000   0.2886751  -0.4378284), wk =   0.0234375
        k(   16) = (   0.0000000   0.4330127   0.0000000), wk =   0.0234375
        k(   17) = (   0.0000000   0.4330127   0.1094571), wk =   0.0468750
        k(   18) = (   0.0000000   0.4330127   0.2189142), wk =   0.0468750
        k(   19) = (   0.0000000   0.4330127   0.3283713), wk =   0.0468750
        k(   20) = (   0.0000000   0.4330127  -0.4378284), wk =   0.0234375
        k(   21) = (   0.0000000  -0.5773503   0.0000000), wk =   0.0117188
        k(   22) = (   0.0000000  -0.5773503   0.1094571), wk =   0.0234375
        k(   23) = (   0.0000000  -0.5773503   0.2189142), wk =   0.0234375
        k(   24) = (   0.0000000  -0.5773503   0.3283713), wk =   0.0234375
        k(   25) = (   0.0000000  -0.5773503  -0.4378284), wk =   0.0117188
        k(   26) = (   0.1250000   0.2165064   0.0000000), wk =   0.0234375
        k(   27) = (   0.1250000   0.2165064   0.1094571), wk =   0.0468750
        k(   28) = (   0.1250000   0.2165064   0.2189142), wk =   0.0468750
        k(   29) = (   0.1250000   0.2165064   0.3283713), wk =   0.0468750
        k(   30) = (   0.1250000   0.2165064  -0.4378284), wk =   0.0234375
        k(   31) = (   0.1250000   0.3608439   0.0000000), wk =   0.0468750
        k(   32) = (   0.1250000   0.3608439   0.1094571), wk =   0.0937500
        k(   33) = (   0.1250000   0.3608439   0.2189142), wk =   0.0937500
        k(   34) = (   0.1250000   0.3608439   0.3283713), wk =   0.0937500
        k(   35) = (   0.1250000   0.3608439  -0.4378284), wk =   0.0468750
        k(   36) = (   0.1250000   0.5051815   0.0000000), wk =   0.0468750
        k(   37) = (   0.1250000   0.5051815   0.1094571), wk =   0.0937500
        k(   38) = (   0.1250000   0.5051815   0.2189142), wk =   0.0937500
        k(   39) = (   0.1250000   0.5051815   0.3283713), wk =   0.0937500
        k(   40) = (   0.1250000   0.5051815  -0.4378284), wk =   0.0468750
        k(   41) = (   0.2500000   0.4330127   0.0000000), wk =   0.0234375
        k(   42) = (   0.2500000   0.4330127   0.1094571), wk =   0.0468750
        k(   43) = (   0.2500000   0.4330127   0.2189142), wk =   0.0468750
        k(   44) = (   0.2500000   0.4330127   0.3283713), wk =   0.0468750
        k(   45) = (   0.2500000   0.4330127  -0.4378284), wk =   0.0234375
        k(   46) = (   0.2500000   0.5773503   0.0000000), wk =   0.0234375
        k(   47) = (   0.2500000   0.5773503   0.1094571), wk =   0.0468750
        k(   48) = (   0.2500000   0.5773503   0.2189142), wk =   0.0468750
        k(   49) = (   0.2500000   0.5773503   0.3283713), wk =   0.0468750
        k(   50) = (   0.2500000   0.5773503  -0.4378284), wk =   0.0234375

     Initial potential from superposition of free atoms

     starting charge       8.9949, renormalised to       9.0000
     Starting wfcs are   10 randomized atomic wfcs

     Self-consistent Calculation

     iteration #  1     ecut=    80.00 Ry     beta= 0.70
     Davidson diagonalization with overlap
     ethr =  1.00E-02,  avg # of iterations =  4.2

     total energy              =     -26.12497140 Ry
     estimated scf accuracy    <       0.14502693 Ry

[...]

     iteration #  4     ecut=    80.00 Ry     beta= 0.70
     Davidson diagonalization with overlap
     c_bands:  1 eigenvalues not converged
     c_bands:  1 eigenvalues not converged
     ethr =  1.64E-06,  avg # of iterations =  7.0

[...]

     End of self-consistent calculation

          k = 0.0000 0.0000 0.0000 (  2377 PWs)   bands (ev):

   -40.1778  -6.0338   2.9676   5.8791   5.8791   9.9222  11.8993  11.8993
    14.1356

[...]

     the Fermi energy is     4.5852 ev

!    total energy              =     -26.16190378 Ry
     estimated scf accuracy    <       0.00000032 Ry

     The total energy is the sum of the following terms:
     one-electron contribution =      -3.47637898 Ry
     hartree contribution      =       3.86719569 Ry
     xc contribution           =      -8.10906825 Ry
     ewald contribution        =     -18.44365224 Ry

     convergence has been achieved in   5 iterations

     Forces acting on atoms (cartesian axes, Ry/au):

     atom    1 type  1   force =     0.00000000    0.00000000    0.00000000
     atom    2 type  2   force =     0.00000000   -0.00000000    0.00000000
     atom    3 type  2   force =     0.00000000    0.00000000    0.00000000

     Total force =     0.000000     Total SCF correction =     0.000000

     Computing stress (Cartesian axis) and pressure

          total   stress  (Ry/bohr**3)                   (kbar)     P=     -106.12
  -0.00097020   0.00000000   0.00000000         -142.72        0.00        0.00
   0.00000000  -0.00097020   0.00000000            0.00     -142.72        0.00
   0.00000000   0.00000000  -0.00022380            0.00        0.00      -32.92

     BFGS Geometry Optimization
     Energy error            =      0.0E+00 Ry
     Gradient error          =      3.2E-30 Ry/Bohr
     Cell gradient error     =      1.4E+02 kbar

     number of scf cycles    =   1
     number of bfgs steps    =   0

     enthalpy           new  =     -26.1619037776 Ry

     new trust radius        =       0.0678396579 bohr
     new conv_thr            =       0.0000010000 Ry

     new unit-cell volume =    185.15875 a.u.^3 (    27.43770 Ang^3 )
     density =      1.72846 g/cm^3

CELL_PARAMETERS (alat=  5.82600000)
   0.975745096   0.000000000   0.000000000
  -0.487872548   0.845020041   0.000000000
   0.000000000   0.000000000   1.135610537

ATOMIC_POSITIONS (crystal)
Li               0.0000000000        0.0000000000        0.0000000000
B                0.3333333333        0.6666666667        0.5000000000
B                0.6666666667        0.3333333333        0.5000000000

     Writing config-only to output data dir ./tmp/LiB2.save/ :
     XML data file
     NEW-OLD atomic charge density approx. for the potential

[...]

     Energy error            =      6.5E-03 Ry
     Gradient error          =      3.3E-30 Ry/Bohr
     Cell gradient error     =      5.3E+01 kbar

[...]

     enthalpy           old  =     -26.1619037776 Ry
     enthalpy           new  =     -26.1684377800 Ry

     CASE: enthalpy          _new < enthalpy          _old

[...]

          k =-0.0000-0.0000-0.4423 (  2358 PWs)   bands (ev):

[...]

     Threshold (ethr) on eigenvalues was too large:
     Diagonalizing with lowered threshold

     Davidson diagonalization with overlap
     ethr =  2.21E-08,  avg # of iterations =  2.0

[...]

     Davidson diagonalization with overlap
     c_bands:  1 eigenvalues not converged
     ethr =  3.46E-09,  avg # of iterations =  2.8

[...]

     number of scf cycles    =   7
     number of bfgs steps    =   6

     enthalpy           old  =     -26.1693443554 Ry
     enthalpy           new  =     -26.1693506485 Ry

     CASE: enthalpy          _new < enthalpy          _old

     new trust radius        =       0.0048299107 bohr
     new conv_thr            =       0.0000000100 Ry

     new unit-cell volume =    178.82977 a.u.^3 (    26.49984 Ang^3 )
     density =      1.78963 g/cm^3

[...]

ATOMIC_POSITIONS (crystal)
Li               0.0000000000       -0.0000000000       -0.0000000000
B                0.3333333333        0.6666666667        0.5000000000
B                0.6666666667        0.3333333333        0.5000000000

     Writing config-only to output data dir ./tmp/LiB2.save/ :
     XML data file
     NEW-OLD atomic charge density approx. for the potential

[...]

     Threshold (ethr) on eigenvalues was too large:
     Diagonalizing with lowered threshold

     Davidson diagonalization with overlap
     ethr =  3.06E-09,  avg # of iterations =  2.6

[...]

     Energy error            =      2.0E-06 Ry
     Gradient error          =      1.7E-30 Ry/Bohr
     Cell gradient error     =      9.9E-02 kbar

     bfgs converged in   8 scf cycles and   7 bfgs steps
     (criteria: energy <  1.0E-04 Ry, force <  1.0E-03 Ry/Bohr, cell <  5.0E-01 kbar)

     End of BFGS Geometry Optimization

     Final enthalpy           =     -26.1693526574 Ry

     File ./tmp/LiB2.bfgs deleted, as requested
Begin final coordinates
     new unit-cell volume =    178.82977 a.u.^3 (    26.49984 Ang^3 )
     density =      1.78963 g/cm^3

CELL_PARAMETERS (alat=  5.82600000)
   0.964384979  -0.000000000  -0.000000000
  -0.482192490   0.835181891   0.000000000
  -0.000000000   0.000000000   1.122785671

ATOMIC_POSITIONS (crystal)
Li               0.0000000000       -0.0000000000       -0.0000000000
B                0.3333333333        0.6666666667        0.5000000000
B                0.6666666667        0.3333333333        0.5000000000
End final coordinates

     Writing config-only to output data dir ./tmp/LiB2.save/ :
     XML data file

     Final scf calculation at the relaxed structure.
     The G-vectors are recalculated for the final unit cell
     Results may differ from those at the preceding step.

     Using Slab Decomposition

     bravais-lattice index     =            4
     lattice parameter (alat)  =       5.8260  a.u.
     unit-cell volume          =     178.8298 (a.u.)^3
     number of atoms/cell      =            3
     number of atomic types    =            2
     number of electrons       =         9.00
     number of Kohn-Sham states=            9
     kinetic-energy cutoff     =      80.0000  Ry
     charge density cutoff     =     320.0000  Ry
     scf convergence threshold =      1.0E-08
     mixing beta               =       0.7000
     number of iterations used =            8  plain     mixing
     press convergence thresh. =      5.0E-01
     Exchange-correlation= PBE
                           (   1   4   3   4   0   0   0)

     celldm(1)=   5.826000  celldm(2)=   0.000000  celldm(3)=   1.142000
     celldm(4)=   0.000000  celldm(5)=   0.000000  celldm(6)=   0.000000

     crystal axes: (cart. coord. in units of alat)
               a(1) = (   0.964385  -0.000000  -0.000000 )
               a(2) = (  -0.482192   0.835182   0.000000 )
               a(3) = (  -0.000000   0.000000   1.122786 )

     reciprocal axes: (cart. coord. in units 2 pi/alat)
               b(1) = (  1.036930  0.598672 -0.000000 )
               b(2) = (  0.000000  1.197344 -0.000000 )
               b(3) = (  0.000000 -0.000000  0.890642 )

     PseudoPot. # 1 for Li read from file:
     ./PSEUDO/Li_ONCV_PBE_sr.upf
     MD5 check sum: 50ff420e78310ffa21704f3361e624a4
     Pseudo is Norm-conserving, Zval =  3.0
     Generated using ONCVPSP code by D. R. Hamann
     Using radial grid of 1944 points,  4 beta functions with:
                l(1) =   0
                l(2) =   0
                l(3) =   1
                l(4) =   1

     PseudoPot. # 2 for B  read from file:
     ./PSEUDO/B_ONCV_PBE_sr.upf
     MD5 check sum: 12e13f68e8dc593c0a1d43390bab284b
     Pseudo is Norm-conserving + core correction, Zval =  3.0
     Generated using ONCVPSP code by D. R. Hamann
     Using radial grid of 1534 points,  4 beta functions with:
                l(1) =   0
                l(2) =   0
                l(3) =   1
                l(4) =   1

     atomic species   valence    mass     pseudopotential
     Li                3.00     6.94000     Li( 1.00)
     B                 3.00    10.81000     B ( 1.00)

     24 Sym. Ops., with inversion, found

   Cartesian axes

     site n.     atom                  positions (alat units)
         1        Li     tau(   1) = (   0.0000000  -0.0000000  -0.0000000  )
         2        B      tau(   2) = (  -0.0000000   0.5567879   0.5613928  )
         3        B      tau(   3) = (   0.4821925   0.2783940   0.5613928  )

     number of k points=    50 (tetrahedron method)
                       cart. coord. in units 2pi/alat
        k(    1) = (   0.0000000   0.0000000   0.0000000), wk =   0.0039062
        k(    2) = (   0.0000000  -0.0000000   0.1113302), wk =   0.0078125
        k(    3) = (   0.0000000  -0.0000000   0.2226605), wk =   0.0078125
        k(    4) = (   0.0000000  -0.0000000   0.3339907), wk =   0.0078125
        k(    5) = (  -0.0000000   0.0000000  -0.4453210), wk =   0.0039062
        k(    6) = (   0.0000000   0.1496680  -0.0000000), wk =   0.0234375
        k(    7) = (   0.0000000   0.1496680   0.1113302), wk =   0.0468750
        k(    8) = (   0.0000000   0.1496680   0.2226605), wk =   0.0468750
        k(    9) = (   0.0000000   0.1496680   0.3339907), wk =   0.0468750
        k(   10) = (   0.0000000   0.1496680  -0.4453210), wk =   0.0234375
        k(   11) = (   0.0000000   0.2993360  -0.0000000), wk =   0.0234375
        k(   12) = (   0.0000000   0.2993360   0.1113302), wk =   0.0468750
        k(   13) = (   0.0000000   0.2993360   0.2226605), wk =   0.0468750
        k(   14) = (   0.0000000   0.2993360   0.3339907), wk =   0.0468750
        k(   15) = (   0.0000000   0.2993360  -0.4453210), wk =   0.0234375
        k(   16) = (   0.0000000   0.4490040  -0.0000000), wk =   0.0234375
        k(   17) = (   0.0000000   0.4490040   0.1113302), wk =   0.0468750
        k(   18) = (   0.0000000   0.4490040   0.2226605), wk =   0.0468750
        k(   19) = (   0.0000000   0.4490040   0.3339907), wk =   0.0468750
        k(   20) = (   0.0000000   0.4490040  -0.4453210), wk =   0.0234375
        k(   21) = (  -0.0000000  -0.5986720   0.0000000), wk =   0.0117188
        k(   22) = (  -0.0000000  -0.5986720   0.1113302), wk =   0.0234375
        k(   23) = (  -0.0000000  -0.5986720   0.2226605), wk =   0.0234375
        k(   24) = (  -0.0000000  -0.5986720   0.3339907), wk =   0.0234375
        k(   25) = (  -0.0000000  -0.5986720  -0.4453210), wk =   0.0117188
        k(   26) = (   0.1296163   0.2245020  -0.0000000), wk =   0.0234375
        k(   27) = (   0.1296163   0.2245020   0.1113302), wk =   0.0468750
        k(   28) = (   0.1296163   0.2245020   0.2226605), wk =   0.0468750
        k(   29) = (   0.1296163   0.2245020   0.3339907), wk =   0.0468750
        k(   30) = (   0.1296163   0.2245020  -0.4453210), wk =   0.0234375
        k(   31) = (   0.1296163   0.3741700  -0.0000000), wk =   0.0468750
        k(   32) = (   0.1296163   0.3741700   0.1113302), wk =   0.0937500
        k(   33) = (   0.1296163   0.3741700   0.2226605), wk =   0.0937500
        k(   34) = (   0.1296163   0.3741700   0.3339907), wk =   0.0937500
        k(   35) = (   0.1296163   0.3741700  -0.4453210), wk =   0.0468750
        k(   36) = (   0.1296163   0.5238380  -0.0000000), wk =   0.0468750
        k(   37) = (   0.1296163   0.5238380   0.1113302), wk =   0.0937500
        k(   38) = (   0.1296163   0.5238380   0.2226605), wk =   0.0937500
        k(   39) = (   0.1296163   0.5238380   0.3339907), wk =   0.0937500
        k(   40) = (   0.1296163   0.5238380  -0.4453210), wk =   0.0468750
        k(   41) = (   0.2592326   0.4490040  -0.0000000), wk =   0.0234375
        k(   42) = (   0.2592326   0.4490040   0.1113302), wk =   0.0468750
        k(   43) = (   0.2592326   0.4490040   0.2226605), wk =   0.0468750
        k(   44) = (   0.2592326   0.4490040   0.3339907), wk =   0.0468750
        k(   45) = (   0.2592326   0.4490040  -0.4453210), wk =   0.0234375
        k(   46) = (   0.2592326   0.5986720  -0.0000000), wk =   0.0234375
        k(   47) = (   0.2592326   0.5986720   0.1113302), wk =   0.0468750
        k(   48) = (   0.2592326   0.5986720   0.2226605), wk =   0.0468750
        k(   49) = (   0.2592326   0.5986720   0.3339907), wk =   0.0468750
        k(   50) = (   0.2592326   0.5986720  -0.4453210), wk =   0.0234375

     Initial potential from superposition of free atoms

     starting charge       8.9949, renormalised to       9.0000
     Starting wfcs are   10 randomized atomic wfcs

     Self-consistent Calculation

[...]

     iteration #  4     ecut=    80.00 Ry     beta= 0.70
     Davidson diagonalization with overlap
     c_bands:  1 eigenvalues not converged
     ethr =  1.61E-06,  avg # of iterations =  5.8

[...]

     total energy              =     -26.16934213 Ry
     estimated scf accuracy    <       0.00000003 Ry

     iteration #  7     ecut=    80.00 Ry     beta= 0.70
     Davidson diagonalization with overlap
     ethr =  2.96E-10,  avg # of iterations =  1.9

     End of self-consistent calculation

[...]

          k =-0.0000-0.5987-0.4453 (  2172 PWs)   bands (ev):

[...]

          k = 0.2592 0.5987-0.4453 (  2162 PWs)   bands (ev):

   -39.3475  -0.5306  -0.1659   1.6643   4.2377   5.8713  13.8652  16.8017
    20.3688

     the Fermi energy is     5.2789 ev

!    total energy              =     -26.16934213 Ry
     estimated scf accuracy    <          3.1E-10 Ry

     The total energy is the sum of the following terms:
     one-electron contribution =      -2.77594188 Ry
     hartree contribution      =       3.78538430 Ry
     xc contribution           =      -8.22558027 Ry
     ewald contribution        =     -18.95320427 Ry

     convergence has been achieved in   7 iterations

     Forces acting on atoms (cartesian axes, Ry/au):

     atom    1 type  1   force =    -0.00000000   -0.00000000    0.00000000
     atom    2 type  2   force =     0.00000000    0.00000000   -0.00000000
     atom    3 type  2   force =     0.00000000    0.00000000   -0.00000000

     Total force =     0.000000     Total SCF correction =     0.000000

     Computing stress (Cartesian axis) and pressure

          total   stress  (Ry/bohr**3)                   (kbar)     P=       -0.21
  -0.00000158  -0.00000000   0.00000000           -0.23       -0.00        0.00
  -0.00000000  -0.00000158   0.00000000           -0.00       -0.23        0.00
   0.00000000   0.00000000  -0.00000111            0.00        0.00       -0.16

     Writing all to output data dir ./tmp/LiB2.save/ :
     XML data file, charge density, pseudopotentials, collected wavefunctions

     General routines

   This run was terminated on:  22:13:16  14Dec2024

   JOB DONE.