     Program PWSCF v.7.3 starts on 15Dec2024 at 22:23: 2

     Waiting for input...
     Reading input from standard input
     Message from routine read_cards :
     DEPRECATED: no units specified in ATOMIC_POSITIONS card
     Message from routine read_cards :
     ATOMIC_POSITIONS: units set to alat

     Current dimensions of program PWSCF are:
     Max number of different atomic species (ntypx) = 10
     Max number of k-points (npk) =  40000
     Max angular momentum in pseudopotentials (lmaxx) =  4
     Message from routine iosys:
     BEWARE:  force calculation with tetrahedra (not recommanded)
     Message from routine iosys:
     BEWARE: stress calculation with tetrahedra (not recommanded)
     [opt_tetra]  Optimized tetrahedron method is used.

     Using Slab Decomposition

     bravais-lattice index     =            2
     lattice parameter (alat)  =       6.4850  a.u.
     unit-cell volume          =      68.1820 (a.u.)^3
     number of atoms/cell      =            1
     number of atomic types    =            1
     number of electrons       =         4.00
     number of Kohn-Sham states=            6
     kinetic-energy cutoff     =      60.0000  Ry
     charge density cutoff     =     240.0000  Ry
     scf convergence threshold =      1.0E-06
     mixing beta               =       0.7000
     number of iterations used =            8  plain     mixing
     energy convergence thresh.=      1.0E-04
     force convergence thresh. =      1.0E-03
     press convergence thresh. =      5.0E-01
     Exchange-correlation= SLA  PW   NOGX NOGC
                           (   1   4   0   0   0   0   0)
     nstep                     =           50

     celldm(1)=   6.485000  celldm(2)=   0.000000  celldm(3)=   0.000000
     celldm(4)=   0.000000  celldm(5)=   0.000000  celldm(6)=   0.000000

     crystal axes: (cart. coord. in units of alat)
               a(1) = (  -0.500000   0.000000   0.500000 )
               a(2) = (   0.000000   0.500000   0.500000 )
               a(3) = (  -0.500000   0.500000   0.000000 )

     reciprocal axes: (cart. coord. in units 2 pi/alat)
               b(1) = ( -1.000000 -1.000000  1.000000 )
               b(2) = (  1.000000  1.000000  1.000000 )
               b(3) = ( -1.000000  1.000000 -1.000000 )

     PseudoPot. # 1 for Si read from file:
     ./PSEUDO/Si.LDA.upf
     MD5 check sum: 9e2d726316af3d4752eea8ab0afbb951
     Pseudo is Norm-conserving + core correction, Zval =  4.0
     Generated using ONCVPSP code by D. R. Hamann
     Using radial grid of 1510 points,  6 beta functions with:
                l(1) =   0
                l(2) =   0
                l(3) =   1
                l(4) =   1
                l(5) =   2
                l(6) =   2

     atomic species   valence    mass     pseudopotential
     Si                4.00    28.76000     Si( 1.00)

     48 Sym. Ops., with inversion, found

   Cartesian axes

     site n.     atom                  positions (alat units)
         1        Si     tau(   1) = (   0.0000000   0.0000000   0.0000000  )

     number of k points=    16 (tetrahedron method)
                       cart. coord. in units 2pi/alat
        k(    1) = (   0.0000000   0.0000000   0.0000000), wk =   0.0092593
        k(    2) = (  -0.1666667   0.1666667  -0.1666667), wk =   0.0740741
        k(    3) = (  -0.3333333   0.3333333  -0.3333333), wk =   0.0740741
        k(    4) = (   0.5000000  -0.5000000   0.5000000), wk =   0.0370370
        k(    5) = (   0.0000000   0.3333333   0.0000000), wk =   0.0555556
        k(    6) = (  -0.1666667   0.5000000  -0.1666667), wk =   0.2222222
        k(    7) = (   0.6666667  -0.3333333   0.6666667), wk =   0.2222222
        k(    8) = (   0.5000000  -0.1666667   0.5000000), wk =   0.2222222
        k(    9) = (   0.3333333   0.0000000   0.3333333), wk =   0.1111111
        k(   10) = (   0.0000000   0.6666667   0.0000000), wk =   0.0555556
        k(   11) = (   0.8333333  -0.1666667   0.8333333), wk =   0.2222222
        k(   12) = (   0.6666667   0.0000000   0.6666667), wk =   0.1111111
        k(   13) = (   0.0000000  -1.0000000   0.0000000), wk =   0.0277778
        k(   14) = (   0.6666667  -0.3333333   1.0000000), wk =   0.2222222
        k(   15) = (   0.5000000  -0.1666667   0.8333333), wk =   0.2222222
        k(   16) = (  -0.3333333  -1.0000000   0.0000000), wk =   0.1111111

     Initial potential from superposition of free atoms

     starting charge       3.9994, renormalised to       4.0000
     Starting wfcs are    4 randomized atomic wfcs +    2 random wfcs

     Self-consistent Calculation

     iteration #  1     ecut=    60.00 Ry     beta= 0.70
     Davidson diagonalization with overlap
     ethr =  1.00E-02,  avg # of iterations =  6.1

     Threshold (ethr) on eigenvalues was too large:
     Diagonalizing with lowered threshold

     Davidson diagonalization with overlap
     ethr =  1.82E-04,  avg # of iterations =  2.6

     total energy              =      -8.43226303 Ry
     estimated scf accuracy    <       0.00714790 Ry

[...]

     End of self-consistent calculation

          k = 0.0000 0.0000 0.0000 (   531 PWs)   bands (ev):

    -1.9539  29.5333  29.5334  32.1216  32.1216  32.1216

          k =-0.1667 0.1667-0.1667 (   540 PWs)   bands (ev):

[...]

     the Fermi energy is    16.3179 ev

!    total energy              =      -8.43227662 Ry
     estimated scf accuracy    <       0.00000079 Ry

     The total energy is the sum of the following terms:
     one-electron contribution =       6.28552531 Ry
     hartree contribution      =       0.01711819 Ry
     xc contribution           =      -3.42300136 Ry
     ewald contribution        =     -11.31191877 Ry

     convergence has been achieved in   3 iterations

     Forces acting on atoms (cartesian axes, Ry/au):

     atom    1 type  1   force =     0.00000000    0.00000000    0.00000000

     Total force =     0.000000     Total SCF correction =     0.000000

     Computing stress (Cartesian axis) and pressure

          total   stress  (Ry/bohr**3)                   (kbar)     P=      516.24
   0.00350933   0.00000000   0.00000000          516.24        0.00        0.00
   0.00000000   0.00350933  -0.00000000            0.00      516.24       -0.00
   0.00000000  -0.00000000   0.00350933            0.00       -0.00      516.24

     BFGS Geometry Optimization
     Energy error            =      0.0E+00 Ry
     Gradient error          =      0.0E+00 Ry/Bohr
     Cell gradient error     =      2.8E+02 kbar

     number of scf cycles    =   1
     number of bfgs steps    =   0

     enthalpy           new  =      -8.0614829868 Ry

     new trust radius        =       0.0796393952 bohr
     new conv_thr            =       0.0000010000 Ry

     new unit-cell volume =     58.78604 a.u.^3 (     8.71119 Ang^3 )
     density =      5.48227 g/cm^3

CELL_PARAMETERS (alat=  6.48500000)
  -0.475888014  -0.000000000   0.475888014
   0.000000000   0.475888014   0.475888014
  -0.475888014   0.475888014  -0.000000000

ATOMIC_POSITIONS (alat)
Si               0.0000000000        0.0000000000        0.0000000000

     Writing config-only to output data dir ./tmp/vcrelax.save/ :
     XML data file
     NEW-OLD atomic charge density approx. for the potential

[...]

     Energy error            =      1.3E-03 Ry
     Gradient error          =      0.0E+00 Ry/Bohr
     Cell gradient error     =      3.1E+02 kbar

[...]

     enthalpy           old  =      -8.0614829868 Ry
     enthalpy           new  =      -8.0627527728 Ry

     CASE: enthalpy          _new < enthalpy          _old

[...]

     number of scf cycles    =   4
     number of bfgs steps    =   3

     enthalpy           old  =      -8.0668757980 Ry
     enthalpy           new  =      -8.0669255770 Ry

     CASE: enthalpy          _new < enthalpy          _old

     new trust radius        =       0.0003378160 bohr
     new conv_thr            =       0.0000000100 Ry

     new unit-cell volume =     62.89714 a.u.^3 (     9.32039 Ang^3 )
     density =      5.12394 g/cm^3

[...]

ATOMIC_POSITIONS (alat)
Si               0.0000000000        0.0000000000        0.0000000000

     Writing config-only to output data dir ./tmp/vcrelax.save/ :
     XML data file
     NEW-OLD atomic charge density approx. for the potential

[...]

     Threshold (ethr) on eigenvalues was too large:
     Diagonalizing with lowered threshold

     Davidson diagonalization with overlap
     ethr =  1.14E-11,  avg # of iterations =  4.2

[...]

     Energy error            =      3.4E-07 Ry
     Gradient error          =      0.0E+00 Ry/Bohr
     Cell gradient error     =      6.1E-02 kbar

     bfgs converged in   5 scf cycles and   4 bfgs steps
     (criteria: energy <  1.0E-04 Ry, force <  1.0E-03 Ry/Bohr, cell <  5.0E-01 kbar)

     End of BFGS Geometry Optimization

     Final enthalpy           =      -8.0669259168 Ry

     File ./tmp/vcrelax.bfgs deleted, as requested
Begin final coordinates
     new unit-cell volume =     62.89714 a.u.^3 (     9.32039 Ang^3 )
     density =      5.12394 g/cm^3

CELL_PARAMETERS (alat=  6.48500000)
  -0.486732459  -0.000000000   0.486732459
   0.000000000   0.486732459   0.486732459
  -0.486732459   0.486732459  -0.000000000

ATOMIC_POSITIONS (alat)
Si               0.0000000000        0.0000000000        0.0000000000
End final coordinates

     Writing config-only to output data dir ./tmp/vcrelax.save/ :
     XML data file

     Final scf calculation at the relaxed structure.
     The G-vectors are recalculated for the final unit cell
     Results may differ from those at the preceding step.

     Using Slab Decomposition

     bravais-lattice index     =            2
     lattice parameter (alat)  =       6.4850  a.u.
     unit-cell volume          =      62.8971 (a.u.)^3
     number of atoms/cell      =            1
     number of atomic types    =            1
     number of electrons       =         4.00
     number of Kohn-Sham states=            6
     kinetic-energy cutoff     =      60.0000  Ry
     charge density cutoff     =     240.0000  Ry
     scf convergence threshold =      1.0E-08
     mixing beta               =       0.7000
     number of iterations used =            8  plain     mixing
     press convergence thresh. =      5.0E-01
     Exchange-correlation= SLA  PW   NOGX NOGC
                           (   1   4   0   0   0   0   0)

     celldm(1)=   6.485000  celldm(2)=   0.000000  celldm(3)=   0.000000
     celldm(4)=   0.000000  celldm(5)=   0.000000  celldm(6)=   0.000000

     crystal axes: (cart. coord. in units of alat)
               a(1) = (  -0.486732  -0.000000   0.486732 )
               a(2) = (   0.000000   0.486732   0.486732 )
               a(3) = (  -0.486732   0.486732  -0.000000 )

     reciprocal axes: (cart. coord. in units 2 pi/alat)
               b(1) = ( -1.027258 -1.027258  1.027258 )
               b(2) = (  1.027258  1.027258  1.027258 )
               b(3) = ( -1.027258  1.027258 -1.027258 )

     PseudoPot. # 1 for Si read from file:
     ./PSEUDO/Si.LDA.upf
     MD5 check sum: 9e2d726316af3d4752eea8ab0afbb951
     Pseudo is Norm-conserving + core correction, Zval =  4.0
     Generated using ONCVPSP code by D. R. Hamann
     Using radial grid of 1510 points,  6 beta functions with:
                l(1) =   0
                l(2) =   0
                l(3) =   1
                l(4) =   1
                l(5) =   2
                l(6) =   2

     atomic species   valence    mass     pseudopotential
     Si                4.00    28.76000     Si( 1.00)

     48 Sym. Ops., with inversion, found

   Cartesian axes

     site n.     atom                  positions (alat units)
         1        Si     tau(   1) = (   0.0000000   0.0000000   0.0000000  )

     number of k points=    16 (tetrahedron method)
                       cart. coord. in units 2pi/alat
        k(    1) = (   0.0000000   0.0000000   0.0000000), wk =   0.0092593
        k(    2) = (  -0.1712097   0.1712097  -0.1712097), wk =   0.0740741
        k(    3) = (  -0.3424195   0.3424195  -0.3424195), wk =   0.0740741
        k(    4) = (   0.5136292  -0.5136292   0.5136292), wk =   0.0370370
        k(    5) = (  -0.0000000   0.3424195   0.0000000), wk =   0.0555556
        k(    6) = (  -0.1712097   0.5136292  -0.1712097), wk =   0.2222222
        k(    7) = (   0.6848389  -0.3424195   0.6848389), wk =   0.2222222
        k(    8) = (   0.5136292  -0.1712097   0.5136292), wk =   0.2222222
        k(    9) = (   0.3424195   0.0000000   0.3424195), wk =   0.1111111
        k(   10) = (  -0.0000000   0.6848389   0.0000000), wk =   0.0555556
        k(   11) = (   0.8560487  -0.1712097   0.8560487), wk =   0.2222222
        k(   12) = (   0.6848389  -0.0000000   0.6848389), wk =   0.1111111
        k(   13) = (   0.0000000  -1.0272584  -0.0000000), wk =   0.0277778
        k(   14) = (   0.6848389  -0.3424195   1.0272584), wk =   0.2222222
        k(   15) = (   0.5136292  -0.1712097   0.8560487), wk =   0.2222222
        k(   16) = (  -0.3424195  -1.0272584   0.0000000), wk =   0.1111111

     Initial potential from superposition of free atoms

     starting charge       3.9994, renormalised to       4.0000
     Starting wfcs are    4 randomized atomic wfcs +    2 random wfcs

     Self-consistent Calculation

     iteration #  1     ecut=    60.00 Ry     beta= 0.70
     Davidson diagonalization with overlap
     c_bands:  1 eigenvalues not converged
     c_bands:  1 eigenvalues not converged
     ethr =  1.00E-06,  avg # of iterations = 15.8

[...]

     total energy              =      -8.40897808 Ry
     estimated scf accuracy    <       0.00000004 Ry

     iteration #  5     ecut=    60.00 Ry     beta= 0.70
     Davidson diagonalization with overlap
     ethr =  9.46E-10,  avg # of iterations =  1.6

     End of self-consistent calculation

[...]

          k = 0.5136-0.1712 0.8560 (   490 PWs)   bands (ev):

[...]

          k =-0.3424-1.0273 0.0000 (   490 PWs)   bands (ev):

    11.2856  13.5374  15.1862  18.4674  30.9918  34.4532

     the Fermi energy is    17.7604 ev

!    total energy              =      -8.40897808 Ry
     estimated scf accuracy    <          1.3E-09 Ry

     The total energy is the sum of the following terms:
     one-electron contribution =       6.68797622 Ry
     hartree contribution      =       0.01944991 Ry
     xc contribution           =      -3.49614082 Ry
     ewald contribution        =     -11.62026340 Ry

     convergence has been achieved in   5 iterations

     Forces acting on atoms (cartesian axes, Ry/au):

     atom    1 type  1   force =     0.00000000    0.00000000    0.00000000

     Total force =     0.000000     Total SCF correction =     0.000000

     Computing stress (Cartesian axis) and pressure

          total   stress  (Ry/bohr**3)                   (kbar)     P=      800.11
   0.00543903  -0.00000000  -0.00000000          800.11       -0.00       -0.00
  -0.00000000   0.00543903   0.00000000           -0.00      800.11        0.00
  -0.00000000   0.00000000   0.00543903           -0.00        0.00      800.11

     Writing all to output data dir ./tmp/vcrelax.save/ :
     XML data file, charge density, pseudopotentials, collected wavefunctions

     General routines

   This run was terminated on:  22:23:17  15Dec2024

   JOB DONE.