     Program PWSCF v.7.3 starts on 15Dec2024 at 22:18:33

     Waiting for input...
     Reading input from standard input
     Message from routine read_cards :
     DEPRECATED: no units specified in ATOMIC_POSITIONS card
     Message from routine read_cards :
     ATOMIC_POSITIONS: units set to alat

     Current dimensions of program PWSCF are:
     Max number of different atomic species (ntypx) = 10
     Max number of k-points (npk) =  40000
     Max angular momentum in pseudopotentials (lmaxx) =  4
     Message from routine iosys:
     BEWARE:  force calculation with tetrahedra (not recommanded)
     Message from routine iosys:
     BEWARE: stress calculation with tetrahedra (not recommanded)
     [opt_tetra]  Optimized tetrahedron method is used.

     Using Slab Decomposition

     bravais-lattice index     =            2
     lattice parameter (alat)  =      10.2100  a.u.
     unit-cell volume          =     266.0831 (a.u.)^3
     number of atoms/cell      =            1
     number of atomic types    =            1
     number of electrons       =         4.00
     number of Kohn-Sham states=            6
     kinetic-energy cutoff     =      60.0000  Ry
     charge density cutoff     =     240.0000  Ry
     scf convergence threshold =      1.0E-06
     mixing beta               =       0.7000
     number of iterations used =            8  plain     mixing
     energy convergence thresh.=      1.0E-04
     force convergence thresh. =      1.0E-03
     press convergence thresh. =      5.0E-01
     Exchange-correlation= SLA  PW   NOGX NOGC
                           (   1   4   0   0   0   0   0)
     nstep                     =           50

     celldm(1)=  10.210000  celldm(2)=   0.000000  celldm(3)=   0.000000
     celldm(4)=   0.000000  celldm(5)=   0.000000  celldm(6)=   0.000000

     crystal axes: (cart. coord. in units of alat)
               a(1) = (  -0.500000   0.000000   0.500000 )
               a(2) = (   0.000000   0.500000   0.500000 )
               a(3) = (  -0.500000   0.500000   0.000000 )

     reciprocal axes: (cart. coord. in units 2 pi/alat)
               b(1) = ( -1.000000 -1.000000  1.000000 )
               b(2) = (  1.000000  1.000000  1.000000 )
               b(3) = ( -1.000000  1.000000 -1.000000 )

     PseudoPot. # 1 for Si read from file:
     ./PSEUDO/Si.LDA.upf
     MD5 check sum: 9e2d726316af3d4752eea8ab0afbb951
     Pseudo is Norm-conserving + core correction, Zval =  4.0
     Generated using ONCVPSP code by D. R. Hamann
     Using radial grid of 1510 points,  6 beta functions with:
                l(1) =   0
                l(2) =   0
                l(3) =   1
                l(4) =   1
                l(5) =   2
                l(6) =   2

     atomic species   valence    mass     pseudopotential
     Si                4.00    28.76000     Si( 1.00)

     48 Sym. Ops., with inversion, found

   Cartesian axes

     site n.     atom                  positions (alat units)
         1        Si     tau(   1) = (   0.0000000   0.0000000   0.0000000  )

     number of k points=    16 (tetrahedron method)
                       cart. coord. in units 2pi/alat
        k(    1) = (   0.0000000   0.0000000   0.0000000), wk =   0.0092593
        k(    2) = (  -0.1666667   0.1666667  -0.1666667), wk =   0.0740741
        k(    3) = (  -0.3333333   0.3333333  -0.3333333), wk =   0.0740741
        k(    4) = (   0.5000000  -0.5000000   0.5000000), wk =   0.0370370
        k(    5) = (   0.0000000   0.3333333   0.0000000), wk =   0.0555556
        k(    6) = (  -0.1666667   0.5000000  -0.1666667), wk =   0.2222222
        k(    7) = (   0.6666667  -0.3333333   0.6666667), wk =   0.2222222
        k(    8) = (   0.5000000  -0.1666667   0.5000000), wk =   0.2222222
        k(    9) = (   0.3333333   0.0000000   0.3333333), wk =   0.1111111
        k(   10) = (   0.0000000   0.6666667   0.0000000), wk =   0.0555556
        k(   11) = (   0.8333333  -0.1666667   0.8333333), wk =   0.2222222
        k(   12) = (   0.6666667   0.0000000   0.6666667), wk =   0.1111111
        k(   13) = (   0.0000000  -1.0000000   0.0000000), wk =   0.0277778
        k(   14) = (   0.6666667  -0.3333333   1.0000000), wk =   0.2222222
        k(   15) = (   0.5000000  -0.1666667   0.8333333), wk =   0.2222222
        k(   16) = (  -0.3333333  -1.0000000   0.0000000), wk =   0.1111111

     Initial potential from superposition of free atoms

     starting charge       3.9994, renormalised to       4.0000
     Starting wfcs are    4 randomized atomic wfcs +    2 random wfcs

     Self-consistent Calculation

     iteration #  1     ecut=    60.00 Ry     beta= 0.70
     Davidson diagonalization with overlap
     ethr =  1.00E-02,  avg # of iterations =  5.8

     Threshold (ethr) on eigenvalues was too large:
     Diagonalizing with lowered threshold

     Davidson diagonalization with overlap
     ethr =  1.35E-04,  avg # of iterations =  4.5

     total energy              =      -8.32514442 Ry
     estimated scf accuracy    <       0.00535942 Ry

[...]

     End of self-consistent calculation

          k = 0.0000 0.0000 0.0000 (  2085 PWs)   bands (ev):

    -7.0105   4.5124   4.5124   4.5124   8.9957  10.0203

          k =-0.1667 0.1667-0.1667 (  2088 PWs)   bands (ev):

[...]

     the Fermi energy is     1.1897 ev

!    total energy              =      -8.32568376 Ry
     estimated scf accuracy    <       0.00000003 Ry

     The total energy is the sum of the following terms:
     one-electron contribution =       1.13847888 Ry
     hartree contribution      =       0.41725456 Ry
     xc contribution           =      -2.69652070 Ry
     ewald contribution        =      -7.18489649 Ry

     convergence has been achieved in   4 iterations

     Forces acting on atoms (cartesian axes, Ry/au):

     atom    1 type  1   force =     0.00000000    0.00000000    0.00000000

     Total force =     0.000000     Total SCF correction =     0.000000

     Computing stress (Cartesian axis) and pressure

          total   stress  (Ry/bohr**3)                   (kbar)     P=     -112.66
  -0.00076587  -0.00000000  -0.00000000         -112.66       -0.00       -0.00
  -0.00000000  -0.00076587   0.00000000           -0.00     -112.66        0.00
  -0.00000000   0.00000000  -0.00076587           -0.00        0.00     -112.66

     BFGS Geometry Optimization
     Energy error            =      0.0E+00 Ry
     Gradient error          =      0.0E+00 Ry/Bohr
     Cell gradient error     =      1.1E+02 kbar

     number of scf cycles    =   1
     number of bfgs steps    =   0

     enthalpy           new  =      -8.3256837559 Ry

     new trust radius        =       0.0624643758 bohr
     new conv_thr            =       0.0000010000 Ry

     new unit-cell volume =    251.09000 a.u.^3 (    37.20770 Ang^3 )
     density =      1.28353 g/cm^3

CELL_PARAMETERS (alat= 10.21000000)
  -0.490426653   0.000000000   0.490426653
  -0.000000000   0.490426653   0.490426653
  -0.490426653   0.490426653   0.000000000

ATOMIC_POSITIONS (alat)
Si              -0.0000000000        0.0000000000        0.0000000000

     Writing config-only to output data dir ./tmp/vcrelax.save/ :
     XML data file
     NEW-OLD atomic charge density approx. for the potential

[...]

     Energy error            =      1.2E-02 Ry
     Gradient error          =      0.0E+00 Ry/Bohr
     Cell gradient error     =      1.2E+02 kbar

[...]

     enthalpy           old  =      -8.3256837559 Ry
     enthalpy           new  =      -8.3374756108 Ry

     CASE: enthalpy          _new < enthalpy          _old

     WARNING: bfgs curvature condition failed, Theta= 0.789
     new trust radius        =       0.0927952388 bohr
     new conv_thr            =       0.0000000100 Ry

[...]

     WARNING: bfgs curvature condition failed, Theta= 0.286
     new trust radius        =       0.1371398885 bohr
     new conv_thr            =       0.0000000100 Ry

[...]

     CASE: enthalpy          _new > enthalpy          _old

[...]

     negative rho (up, down):  4.745E-06 0.000E+00

[...]

     number of scf cycles    =   9
     number of bfgs steps    =   7

     enthalpy           old  =      -8.4674438980 Ry
     enthalpy           new  =      -8.4675380320 Ry

     CASE: enthalpy          _new < enthalpy          _old

     new trust radius        =       0.0026649680 bohr
     new conv_thr            =       0.0000000100 Ry

     new unit-cell volume =     96.26671 a.u.^3 (    14.26525 Ang^3 )
     density =      3.34779 g/cm^3

[...]

ATOMIC_POSITIONS (alat)
Si              -0.0000000000        0.0000000000        0.0000000000

     Writing config-only to output data dir ./tmp/vcrelax.save/ :
     XML data file
     NEW-OLD atomic charge density approx. for the potential

[...]

     Threshold (ethr) on eigenvalues was too large:
     Diagonalizing with lowered threshold

     Davidson diagonalization with overlap
     ethr =  7.71E-11,  avg # of iterations =  4.8

[...]

     Energy error            =      4.4E-06 Ry
     Gradient error          =      0.0E+00 Ry/Bohr
     Cell gradient error     =      7.8E-02 kbar

     bfgs converged in  10 scf cycles and   8 bfgs steps
     (criteria: energy <  1.0E-04 Ry, force <  1.0E-03 Ry/Bohr, cell <  5.0E-01 kbar)

     End of BFGS Geometry Optimization

     Final enthalpy           =      -8.4675424189 Ry

     File ./tmp/vcrelax.bfgs deleted, as requested
Begin final coordinates
     new unit-cell volume =     96.26671 a.u.^3 (    14.26525 Ang^3 )
     density =      3.34779 g/cm^3

CELL_PARAMETERS (alat= 10.21000000)
  -0.356278513   0.000000000   0.356278513
  -0.000000000   0.356278513   0.356278513
  -0.356278513   0.356278513   0.000000000

ATOMIC_POSITIONS (alat)
Si              -0.0000000000        0.0000000000        0.0000000000
End final coordinates

     Writing config-only to output data dir ./tmp/vcrelax.save/ :
     XML data file

     Final scf calculation at the relaxed structure.
     The G-vectors are recalculated for the final unit cell
     Results may differ from those at the preceding step.

     Using Slab Decomposition

     bravais-lattice index     =            2
     lattice parameter (alat)  =      10.2100  a.u.
     unit-cell volume          =      96.2667 (a.u.)^3
     number of atoms/cell      =            1
     number of atomic types    =            1
     number of electrons       =         4.00
     number of Kohn-Sham states=            6
     kinetic-energy cutoff     =      60.0000  Ry
     charge density cutoff     =     240.0000  Ry
     scf convergence threshold =      1.0E-08
     mixing beta               =       0.7000
     number of iterations used =            8  plain     mixing
     press convergence thresh. =      5.0E-01
     Exchange-correlation= SLA  PW   NOGX NOGC
                           (   1   4   0   0   0   0   0)

     celldm(1)=  10.210000  celldm(2)=   0.000000  celldm(3)=   0.000000
     celldm(4)=   0.000000  celldm(5)=   0.000000  celldm(6)=   0.000000

     crystal axes: (cart. coord. in units of alat)
               a(1) = (  -0.356279   0.000000   0.356279 )
               a(2) = (  -0.000000   0.356279   0.356279 )
               a(3) = (  -0.356279   0.356279   0.000000 )

     reciprocal axes: (cart. coord. in units 2 pi/alat)
               b(1) = ( -1.403396 -1.403396  1.403396 )
               b(2) = (  1.403396  1.403396  1.403396 )
               b(3) = ( -1.403396  1.403396 -1.403396 )

     PseudoPot. # 1 for Si read from file:
     ./PSEUDO/Si.LDA.upf
     MD5 check sum: 9e2d726316af3d4752eea8ab0afbb951
     Pseudo is Norm-conserving + core correction, Zval =  4.0
     Generated using ONCVPSP code by D. R. Hamann
     Using radial grid of 1510 points,  6 beta functions with:
                l(1) =   0
                l(2) =   0
                l(3) =   1
                l(4) =   1
                l(5) =   2
                l(6) =   2

     atomic species   valence    mass     pseudopotential
     Si                4.00    28.76000     Si( 1.00)

     48 Sym. Ops., with inversion, found

   Cartesian axes

     site n.     atom                  positions (alat units)
         1        Si     tau(   1) = (  -0.0000000   0.0000000   0.0000000  )

     number of k points=    16 (tetrahedron method)
                       cart. coord. in units 2pi/alat
        k(    1) = (   0.0000000   0.0000000   0.0000000), wk =   0.0092593
        k(    2) = (  -0.2338994   0.2338994  -0.2338994), wk =   0.0740741
        k(    3) = (  -0.4677988   0.4677988  -0.4677988), wk =   0.0740741
        k(    4) = (   0.7016982  -0.7016982   0.7016982), wk =   0.0370370
        k(    5) = (  -0.0000000   0.4677988  -0.0000000), wk =   0.0555556
        k(    6) = (  -0.2338994   0.7016982  -0.2338994), wk =   0.2222222
        k(    7) = (   0.9355976  -0.4677988   0.9355976), wk =   0.2222222
        k(    8) = (   0.7016982  -0.2338994   0.7016982), wk =   0.2222222
        k(    9) = (   0.4677988   0.0000000   0.4677988), wk =   0.1111111
        k(   10) = (  -0.0000000   0.9355976  -0.0000000), wk =   0.0555556
        k(   11) = (   1.1694970  -0.2338994   1.1694970), wk =   0.2222222
        k(   12) = (   0.9355976   0.0000000   0.9355976), wk =   0.1111111
        k(   13) = (   0.0000000  -1.4033964   0.0000000), wk =   0.0277778
        k(   14) = (   0.9355976  -0.4677988   1.4033964), wk =   0.2222222
        k(   15) = (   0.7016982  -0.2338994   1.1694970), wk =   0.2222222
        k(   16) = (  -0.4677988  -1.4033964   0.0000000), wk =   0.1111111

     Initial potential from superposition of free atoms

     starting charge       3.9994, renormalised to       4.0000
     Starting wfcs are    4 randomized atomic wfcs +    2 random wfcs

     Self-consistent Calculation

     iteration #  1     ecut=    60.00 Ry     beta= 0.70
     Davidson diagonalization with overlap
     c_bands:  1 eigenvalues not converged
     c_bands:  1 eigenvalues not converged
     c_bands:  1 eigenvalues not converged
     c_bands:  1 eigenvalues not converged
     ethr =  1.00E-06,  avg # of iterations = 15.8

[...]

     total energy              =      -8.46752427 Ry
     estimated scf accuracy    <       0.00000002 Ry

     iteration #  5     ecut=    60.00 Ry     beta= 0.70
     Davidson diagonalization with overlap
     ethr =  4.41E-10,  avg # of iterations =  2.8

     End of self-consistent calculation

[...]

          k = 0.7017-0.2339 1.1695 (   748 PWs)   bands (ev):

[...]

          k =-0.4678-1.4034 0.0000 (   750 PWs)   bands (ev):

     6.3657   7.1768   9.4182  10.4525  21.6194  22.5803

     the Fermi energy is    10.7616 ev

!    total energy              =      -8.46752428 Ry
     estimated scf accuracy    <          8.4E-11 Ry

     The total energy is the sum of the following terms:
     one-electron contribution =       4.73652240 Ry
     hartree contribution      =       0.03463391 Ry
     xc contribution           =      -3.15542237 Ry
     ewald contribution        =     -10.08325822 Ry

     convergence has been achieved in   5 iterations

     Forces acting on atoms (cartesian axes, Ry/au):

     atom    1 type  1   force =     0.00000000    0.00000000    0.00000000

     Total force =     0.000000     Total SCF correction =     0.000000

     Computing stress (Cartesian axis) and pressure

          total   stress  (Ry/bohr**3)                   (kbar)     P=       -0.02
  -0.00000012   0.00000000  -0.00000000           -0.02        0.00       -0.00
   0.00000000  -0.00000012   0.00000000            0.00       -0.02        0.00
  -0.00000000   0.00000000  -0.00000012           -0.00        0.00       -0.02

     Writing all to output data dir ./tmp/vcrelax.save/ :
     XML data file, charge density, pseudopotentials, collected wavefunctions

     General routines

   This run was terminated on:  22:18:59  15Dec2024

   JOB DONE.