     Program PWSCF v.7.3 starts on 15Dec2024 at 22:20:25

     Waiting for input...
     Reading input from standard input
     Message from routine read_cards :
     DEPRECATED: no units specified in ATOMIC_POSITIONS card
     Message from routine read_cards :
     ATOMIC_POSITIONS: units set to alat

     Current dimensions of program PWSCF are:
     Max number of different atomic species (ntypx) = 10
     Max number of k-points (npk) =  40000
     Max angular momentum in pseudopotentials (lmaxx) =  4
     Message from routine iosys:
     BEWARE:  force calculation with tetrahedra (not recommanded)
     Message from routine iosys:
     BEWARE: stress calculation with tetrahedra (not recommanded)
     [opt_tetra]  Optimized tetrahedron method is used.

     Using Slab Decomposition

     bravais-lattice index     =            2
     lattice parameter (alat)  =       7.0380  a.u.
     unit-cell volume          =      87.1541 (a.u.)^3
     number of atoms/cell      =            1
     number of atomic types    =            1
     number of electrons       =         4.00
     number of Kohn-Sham states=            6
     kinetic-energy cutoff     =      60.0000  Ry
     charge density cutoff     =     240.0000  Ry
     scf convergence threshold =      1.0E-06
     mixing beta               =       0.7000
     number of iterations used =            8  plain     mixing
     energy convergence thresh.=      1.0E-04
     force convergence thresh. =      1.0E-03
     press convergence thresh. =      5.0E-01
     Exchange-correlation= SLA  PW   NOGX NOGC
                           (   1   4   0   0   0   0   0)
     nstep                     =           50

     celldm(1)=   7.038000  celldm(2)=   0.000000  celldm(3)=   0.000000
     celldm(4)=   0.000000  celldm(5)=   0.000000  celldm(6)=   0.000000

     crystal axes: (cart. coord. in units of alat)
               a(1) = (  -0.500000   0.000000   0.500000 )
               a(2) = (   0.000000   0.500000   0.500000 )
               a(3) = (  -0.500000   0.500000   0.000000 )

     reciprocal axes: (cart. coord. in units 2 pi/alat)
               b(1) = ( -1.000000 -1.000000  1.000000 )
               b(2) = (  1.000000  1.000000  1.000000 )
               b(3) = ( -1.000000  1.000000 -1.000000 )

     PseudoPot. # 1 for Si read from file:
     ./PSEUDO/Si.LDA.upf
     MD5 check sum: 9e2d726316af3d4752eea8ab0afbb951
     Pseudo is Norm-conserving + core correction, Zval =  4.0
     Generated using ONCVPSP code by D. R. Hamann
     Using radial grid of 1510 points,  6 beta functions with:
                l(1) =   0
                l(2) =   0
                l(3) =   1
                l(4) =   1
                l(5) =   2
                l(6) =   2

     atomic species   valence    mass     pseudopotential
     Si                4.00    28.76000     Si( 1.00)

     48 Sym. Ops., with inversion, found

   Cartesian axes

     site n.     atom                  positions (alat units)
         1        Si     tau(   1) = (   0.0000000   0.0000000   0.0000000  )

     number of k points=    16 (tetrahedron method)
                       cart. coord. in units 2pi/alat
        k(    1) = (   0.0000000   0.0000000   0.0000000), wk =   0.0092593
        k(    2) = (  -0.1666667   0.1666667  -0.1666667), wk =   0.0740741
        k(    3) = (  -0.3333333   0.3333333  -0.3333333), wk =   0.0740741
        k(    4) = (   0.5000000  -0.5000000   0.5000000), wk =   0.0370370
        k(    5) = (   0.0000000   0.3333333   0.0000000), wk =   0.0555556
        k(    6) = (  -0.1666667   0.5000000  -0.1666667), wk =   0.2222222
        k(    7) = (   0.6666667  -0.3333333   0.6666667), wk =   0.2222222
        k(    8) = (   0.5000000  -0.1666667   0.5000000), wk =   0.2222222
        k(    9) = (   0.3333333   0.0000000   0.3333333), wk =   0.1111111
        k(   10) = (   0.0000000   0.6666667   0.0000000), wk =   0.0555556
        k(   11) = (   0.8333333  -0.1666667   0.8333333), wk =   0.2222222
        k(   12) = (   0.6666667   0.0000000   0.6666667), wk =   0.1111111
        k(   13) = (   0.0000000  -1.0000000   0.0000000), wk =   0.0277778
        k(   14) = (   0.6666667  -0.3333333   1.0000000), wk =   0.2222222
        k(   15) = (   0.5000000  -0.1666667   0.8333333), wk =   0.2222222
        k(   16) = (  -0.3333333  -1.0000000   0.0000000), wk =   0.1111111

     Initial potential from superposition of free atoms

     starting charge       3.9994, renormalised to       4.0000
     Starting wfcs are    4 randomized atomic wfcs +    2 random wfcs

     Self-consistent Calculation

     iteration #  1     ecut=    60.00 Ry     beta= 0.70
     Davidson diagonalization with overlap
     ethr =  1.00E-02,  avg # of iterations =  5.6

     Threshold (ethr) on eigenvalues was too large:
     Diagonalizing with lowered threshold

     Davidson diagonalization with overlap
     ethr =  1.20E-04,  avg # of iterations =  3.6

     total energy              =      -8.46454545 Ry
     estimated scf accuracy    <       0.00469154 Ry

[...]

     End of self-consistent calculation

          k = 0.0000 0.0000 0.0000 (   701 PWs)   bands (ev):

    -3.3394  24.4916  24.4916  24.5262  24.5262  24.5262

          k =-0.1667 0.1667-0.1667 (   673 PWs)   bands (ev):

[...]

     the Fermi energy is    12.2516 ev

!    total energy              =      -8.46462373 Ry
     estimated scf accuracy    <          2.6E-09 Ry

     The total energy is the sum of the following terms:
     one-electron contribution =       5.15998440 Ry
     hartree contribution      =       0.02474527 Ry
     xc contribution           =      -3.22625122 Ry
     ewald contribution        =     -10.42310219 Ry

     convergence has been achieved in   4 iterations

     Forces acting on atoms (cartesian axes, Ry/au):

     atom    1 type  1   force =     0.00000000    0.00000000    0.00000000

     Total force =     0.000000     Total SCF correction =     0.000000

     Computing stress (Cartesian axis) and pressure

          total   stress  (Ry/bohr**3)                   (kbar)     P=       99.82
   0.00067856  -0.00000000  -0.00000000           99.82       -0.00       -0.00
  -0.00000000   0.00067856   0.00000000           -0.00       99.82        0.00
  -0.00000000   0.00000000   0.00067856           -0.00        0.00       99.82

     BFGS Geometry Optimization
     Energy error            =      0.0E+00 Ry
     Gradient error          =      0.0E+00 Ry/Bohr
     Cell gradient error     =      1.0E+02 kbar

     number of scf cycles    =   1
     number of bfgs steps    =   0

     enthalpy           new  =      -8.3461314341 Ry

     new trust radius        =       0.0317885419 bohr
     new conv_thr            =       0.0000010000 Ry

     new unit-cell volume =     82.77796 a.u.^3 (    12.26643 Ang^3 )
     density =      3.89332 g/cm^3

CELL_PARAMETERS (alat=  7.03800000)
  -0.491487312   0.000000000   0.491487312
  -0.000000000   0.491487312   0.491487312
  -0.491487312   0.491487312   0.000000000

ATOMIC_POSITIONS (alat)
Si              -0.0000000000        0.0000000000        0.0000000000

     Writing config-only to output data dir ./tmp/vcrelax.save/ :
     XML data file
     NEW-OLD atomic charge density approx. for the potential

[...]

     Energy error            =      2.1E-03 Ry
     Gradient error          =      0.0E+00 Ry/Bohr
     Cell gradient error     =      4.0E+01 kbar

[...]

     enthalpy           old  =      -8.3461314341 Ry
     enthalpy           new  =      -8.3482458176 Ry

     CASE: enthalpy          _new < enthalpy          _old

[...]

     CASE: enthalpy          _new > enthalpy          _old

[...]

     number of scf cycles    =   5
     number of bfgs steps    =   3

     enthalpy           old  =      -8.3491664143 Ry
     enthalpy           new  =      -8.3493224267 Ry

     CASE: enthalpy          _new < enthalpy          _old

     new trust radius        =       0.0003068413 bohr
     new conv_thr            =       0.0000000100 Ry

     new unit-cell volume =     78.56299 a.u.^3 (    11.64183 Ang^3 )
     density =      4.10220 g/cm^3

[...]

ATOMIC_POSITIONS (alat)
Si              -0.0000000000        0.0000000000        0.0000000000

     Writing config-only to output data dir ./tmp/vcrelax.save/ :
     XML data file
     NEW-OLD atomic charge density approx. for the potential

[...]

     Threshold (ethr) on eigenvalues was too large:
     Diagonalizing with lowered threshold

     Davidson diagonalization with overlap
     ethr =  6.06E-12,  avg # of iterations =  4.6

[...]

     Energy error            =      1.1E-07 Ry
     Gradient error          =      0.0E+00 Ry/Bohr
     Cell gradient error     =      2.7E-02 kbar

     bfgs converged in   6 scf cycles and   4 bfgs steps
     (criteria: energy <  1.0E-04 Ry, force <  1.0E-03 Ry/Bohr, cell <  5.0E-01 kbar)

     End of BFGS Geometry Optimization

     Final enthalpy           =      -8.3493225341 Ry

     File ./tmp/vcrelax.bfgs deleted, as requested
Begin final coordinates
     new unit-cell volume =     78.56299 a.u.^3 (    11.64183 Ang^3 )
     density =      4.10220 g/cm^3

CELL_PARAMETERS (alat=  7.03800000)
  -0.482999557   0.000000000   0.482999557
  -0.000000000   0.482999557   0.482999557
  -0.482999557   0.482999557   0.000000000

ATOMIC_POSITIONS (alat)
Si              -0.0000000000        0.0000000000        0.0000000000
End final coordinates

     Writing config-only to output data dir ./tmp/vcrelax.save/ :
     XML data file

     Final scf calculation at the relaxed structure.
     The G-vectors are recalculated for the final unit cell
     Results may differ from those at the preceding step.

     Using Slab Decomposition

     bravais-lattice index     =            2
     lattice parameter (alat)  =       7.0380  a.u.
     unit-cell volume          =      78.5630 (a.u.)^3
     number of atoms/cell      =            1
     number of atomic types    =            1
     number of electrons       =         4.00
     number of Kohn-Sham states=            6
     kinetic-energy cutoff     =      60.0000  Ry
     charge density cutoff     =     240.0000  Ry
     scf convergence threshold =      1.0E-08
     mixing beta               =       0.7000
     number of iterations used =            8  plain     mixing
     press convergence thresh. =      5.0E-01
     Exchange-correlation= SLA  PW   NOGX NOGC
                           (   1   4   0   0   0   0   0)

     celldm(1)=   7.038000  celldm(2)=   0.000000  celldm(3)=   0.000000
     celldm(4)=   0.000000  celldm(5)=   0.000000  celldm(6)=   0.000000

     crystal axes: (cart. coord. in units of alat)
               a(1) = (  -0.483000   0.000000   0.483000 )
               a(2) = (  -0.000000   0.483000   0.483000 )
               a(3) = (  -0.483000   0.483000   0.000000 )

     reciprocal axes: (cart. coord. in units 2 pi/alat)
               b(1) = ( -1.035198 -1.035198  1.035198 )
               b(2) = (  1.035198  1.035198  1.035198 )
               b(3) = ( -1.035198  1.035198 -1.035198 )

     PseudoPot. # 1 for Si read from file:
     ./PSEUDO/Si.LDA.upf
     MD5 check sum: 9e2d726316af3d4752eea8ab0afbb951
     Pseudo is Norm-conserving + core correction, Zval =  4.0
     Generated using ONCVPSP code by D. R. Hamann
     Using radial grid of 1510 points,  6 beta functions with:
                l(1) =   0
                l(2) =   0
                l(3) =   1
                l(4) =   1
                l(5) =   2
                l(6) =   2

     atomic species   valence    mass     pseudopotential
     Si                4.00    28.76000     Si( 1.00)

     48 Sym. Ops., with inversion, found

   Cartesian axes

     site n.     atom                  positions (alat units)
         1        Si     tau(   1) = (  -0.0000000   0.0000000   0.0000000  )

     number of k points=    16 (tetrahedron method)
                       cart. coord. in units 2pi/alat
        k(    1) = (   0.0000000   0.0000000   0.0000000), wk =   0.0092593
        k(    2) = (  -0.1725329   0.1725329  -0.1725329), wk =   0.0740741
        k(    3) = (  -0.3450659   0.3450659  -0.3450659), wk =   0.0740741
        k(    4) = (   0.5175988  -0.5175988   0.5175988), wk =   0.0370370
        k(    5) = (   0.0000000   0.3450659   0.0000000), wk =   0.0555556
        k(    6) = (  -0.1725329   0.5175988  -0.1725329), wk =   0.2222222
        k(    7) = (   0.6901318  -0.3450659   0.6901318), wk =   0.2222222
        k(    8) = (   0.5175988  -0.1725329   0.5175988), wk =   0.2222222
        k(    9) = (   0.3450659   0.0000000   0.3450659), wk =   0.1111111
        k(   10) = (   0.0000000   0.6901318   0.0000000), wk =   0.0555556
        k(   11) = (   0.8626647  -0.1725329   0.8626647), wk =   0.2222222
        k(   12) = (   0.6901318   0.0000000   0.6901318), wk =   0.1111111
        k(   13) = (   0.0000000  -1.0351976   0.0000000), wk =   0.0277778
        k(   14) = (   0.6901318  -0.3450659   1.0351976), wk =   0.2222222
        k(   15) = (   0.5175988  -0.1725329   0.8626647), wk =   0.2222222
        k(   16) = (  -0.3450659  -1.0351976   0.0000000), wk =   0.1111111

     Initial potential from superposition of free atoms

     starting charge       3.9994, renormalised to       4.0000
     Starting wfcs are    4 randomized atomic wfcs +    2 random wfcs

     Self-consistent Calculation

     iteration #  1     ecut=    60.00 Ry     beta= 0.70
     Davidson diagonalization with overlap
     c_bands:  1 eigenvalues not converged
     c_bands:  1 eigenvalues not converged
     c_bands:  1 eigenvalues not converged
     c_bands:  1 eigenvalues not converged
     ethr =  1.00E-06,  avg # of iterations = 15.4

[...]

     total energy              =      -8.45613389 Ry
     estimated scf accuracy    <       0.00000003 Ry

     iteration #  5     ecut=    60.00 Ry     beta= 0.70
     Davidson diagonalization with overlap
     ethr =  6.96E-10,  avg # of iterations =  2.0

     End of self-consistent calculation

[...]

          k = 0.5176-0.1725 0.8627 (   620 PWs)   bands (ev):

[...]

          k =-0.3451-1.0352 0.0000 (   618 PWs)   bands (ev):

     8.4834  10.2097  11.9405  13.7170  25.7147  27.6786

     the Fermi energy is    13.8988 ev

!    total energy              =      -8.45613390 Ry
     estimated scf accuracy    <          2.3E-10 Ry

     The total energy is the sum of the following terms:
     one-electron contribution =       5.62001430 Ry
     hartree contribution      =       0.01763618 Ry
     xc contribution           =      -3.30381362 Ry
     ewald contribution        =     -10.78997076 Ry

     convergence has been achieved in   5 iterations

     Forces acting on atoms (cartesian axes, Ry/au):

     atom    1 type  1   force =     0.00000000    0.00000000    0.00000000

     Total force =     0.000000     Total SCF correction =     0.000000

     Computing stress (Cartesian axis) and pressure

          total   stress  (Ry/bohr**3)                   (kbar)     P=      200.05
   0.00135988  -0.00000000  -0.00000000          200.05       -0.00       -0.00
  -0.00000000   0.00135988   0.00000000           -0.00      200.05        0.00
  -0.00000000   0.00000000   0.00135988           -0.00        0.00      200.05

     Writing all to output data dir ./tmp/vcrelax.save/ :
     XML data file, charge density, pseudopotentials, collected wavefunctions

     General routines

   This run was terminated on:  22:20:33  15Dec2024

   JOB DONE.