     Program PWSCF v.7.3 starts on 15Dec2024 at 22:21:58

     Waiting for input...
     Reading input from standard input
     Message from routine read_cards :
     DEPRECATED: no units specified in ATOMIC_POSITIONS card
     Message from routine read_cards :
     ATOMIC_POSITIONS: units set to alat

     Current dimensions of program PWSCF are:
     Max number of different atomic species (ntypx) = 10
     Max number of k-points (npk) =  40000
     Max angular momentum in pseudopotentials (lmaxx) =  4
     Message from routine iosys:
     BEWARE:  force calculation with tetrahedra (not recommanded)
     Message from routine iosys:
     BEWARE: stress calculation with tetrahedra (not recommanded)
     [opt_tetra]  Optimized tetrahedron method is used.

     Using Slab Decomposition

     bravais-lattice index     =            2
     lattice parameter (alat)  =       6.7980  a.u.
     unit-cell volume          =      78.5387 (a.u.)^3
     number of atoms/cell      =            1
     number of atomic types    =            1
     number of electrons       =         4.00
     number of Kohn-Sham states=            6
     kinetic-energy cutoff     =      60.0000  Ry
     charge density cutoff     =     240.0000  Ry
     scf convergence threshold =      1.0E-06
     mixing beta               =       0.7000
     number of iterations used =            8  plain     mixing
     energy convergence thresh.=      1.0E-04
     force convergence thresh. =      1.0E-03
     press convergence thresh. =      5.0E-01
     Exchange-correlation= SLA  PW   NOGX NOGC
                           (   1   4   0   0   0   0   0)
     nstep                     =           50

     celldm(1)=   6.798000  celldm(2)=   0.000000  celldm(3)=   0.000000
     celldm(4)=   0.000000  celldm(5)=   0.000000  celldm(6)=   0.000000

     crystal axes: (cart. coord. in units of alat)
               a(1) = (  -0.500000   0.000000   0.500000 )
               a(2) = (   0.000000   0.500000   0.500000 )
               a(3) = (  -0.500000   0.500000   0.000000 )

     reciprocal axes: (cart. coord. in units 2 pi/alat)
               b(1) = ( -1.000000 -1.000000  1.000000 )
               b(2) = (  1.000000  1.000000  1.000000 )
               b(3) = ( -1.000000  1.000000 -1.000000 )

     PseudoPot. # 1 for Si read from file:
     ./PSEUDO/Si.LDA.upf
     MD5 check sum: 9e2d726316af3d4752eea8ab0afbb951
     Pseudo is Norm-conserving + core correction, Zval =  4.0
     Generated using ONCVPSP code by D. R. Hamann
     Using radial grid of 1510 points,  6 beta functions with:
                l(1) =   0
                l(2) =   0
                l(3) =   1
                l(4) =   1
                l(5) =   2
                l(6) =   2

     atomic species   valence    mass     pseudopotential
     Si                4.00    28.76000     Si( 1.00)

     48 Sym. Ops., with inversion, found

   Cartesian axes

     site n.     atom                  positions (alat units)
         1        Si     tau(   1) = (   0.0000000   0.0000000   0.0000000  )

     number of k points=    16 (tetrahedron method)
                       cart. coord. in units 2pi/alat
        k(    1) = (   0.0000000   0.0000000   0.0000000), wk =   0.0092593
        k(    2) = (  -0.1666667   0.1666667  -0.1666667), wk =   0.0740741
        k(    3) = (  -0.3333333   0.3333333  -0.3333333), wk =   0.0740741
        k(    4) = (   0.5000000  -0.5000000   0.5000000), wk =   0.0370370
        k(    5) = (   0.0000000   0.3333333   0.0000000), wk =   0.0555556
        k(    6) = (  -0.1666667   0.5000000  -0.1666667), wk =   0.2222222
        k(    7) = (   0.6666667  -0.3333333   0.6666667), wk =   0.2222222
        k(    8) = (   0.5000000  -0.1666667   0.5000000), wk =   0.2222222
        k(    9) = (   0.3333333   0.0000000   0.3333333), wk =   0.1111111
        k(   10) = (   0.0000000   0.6666667   0.0000000), wk =   0.0555556
        k(   11) = (   0.8333333  -0.1666667   0.8333333), wk =   0.2222222
        k(   12) = (   0.6666667   0.0000000   0.6666667), wk =   0.1111111
        k(   13) = (   0.0000000  -1.0000000   0.0000000), wk =   0.0277778
        k(   14) = (   0.6666667  -0.3333333   1.0000000), wk =   0.2222222
        k(   15) = (   0.5000000  -0.1666667   0.8333333), wk =   0.2222222
        k(   16) = (  -0.3333333  -1.0000000   0.0000000), wk =   0.1111111

     Initial potential from superposition of free atoms

     starting charge       3.9994, renormalised to       4.0000
     Starting wfcs are    4 randomized atomic wfcs +    2 random wfcs

     Self-consistent Calculation

     iteration #  1     ecut=    60.00 Ry     beta= 0.70
     Davidson diagonalization with overlap
     ethr =  1.00E-02,  avg # of iterations =  6.1

     Threshold (ethr) on eigenvalues was too large:
     Diagonalizing with lowered threshold

     Davidson diagonalization with overlap
     ethr =  1.52E-04,  avg # of iterations =  3.0

     total energy              =      -8.45604341 Ry
     estimated scf accuracy    <       0.00593401 Ry

[...]

     End of self-consistent calculation

          k = 0.0000 0.0000 0.0000 (   609 PWs)   bands (ev):

    -2.7981  26.5196  26.5196  27.5592  27.5592  27.5592

          k =-0.1667 0.1667-0.1667 (   610 PWs)   bands (ev):

[...]

     the Fermi energy is    13.9039 ev

!    total energy              =      -8.45610078 Ry
     estimated scf accuracy    <          9.7E-09 Ry

     The total energy is the sum of the following terms:
     one-electron contribution =       5.62141550 Ry
     hartree contribution      =       0.01762534 Ry
     xc contribution           =      -3.30405701 Ry
     ewald contribution        =     -10.79108461 Ry

     convergence has been achieved in   4 iterations

     Forces acting on atoms (cartesian axes, Ry/au):

     atom    1 type  1   force =     0.00000000    0.00000000    0.00000000

     Total force =     0.000000     Total SCF correction =     0.000000

     Computing stress (Cartesian axis) and pressure

          total   stress  (Ry/bohr**3)                   (kbar)     P=      200.49
   0.00136290  -0.00000000   0.00000000          200.49       -0.00        0.00
  -0.00000000   0.00136290  -0.00000000           -0.00      200.49       -0.00
   0.00000000  -0.00000000   0.00136290            0.00       -0.00      200.49

     BFGS Geometry Optimization
     Energy error            =      0.0E+00 Ry
     Gradient error          =      0.0E+00 Ry/Bohr
     Cell gradient error     =      3.0E+02 kbar

     number of scf cycles    =   1
     number of bfgs steps    =   0

     enthalpy           new  =      -8.1891532955 Ry

     new trust radius        =       0.0902186076 bohr
     new conv_thr            =       0.0000010000 Ry

     new unit-cell volume =     67.14572 a.u.^3 (     9.94997 Ang^3 )
     density =      4.79972 g/cm^3

CELL_PARAMETERS (alat=  6.79800000)
  -0.474549613   0.000000000   0.474549613
   0.000000000   0.474549613   0.474549613
  -0.474549613   0.474549613  -0.000000000

ATOMIC_POSITIONS (alat)
Si               0.0000000000        0.0000000000        0.0000000000

     Writing config-only to output data dir ./tmp/vcrelax.save/ :
     XML data file
     NEW-OLD atomic charge density approx. for the potential

[...]

     Energy error            =      1.1E-02 Ry
     Gradient error          =      0.0E+00 Ry/Bohr
     Cell gradient error     =      6.2E+01 kbar

[...]

     enthalpy           old  =      -8.1891532955 Ry
     enthalpy           new  =      -8.2002607933 Ry

     CASE: enthalpy          _new < enthalpy          _old

[...]

     number of scf cycles    =   3
     number of bfgs steps    =   2

     enthalpy           old  =      -8.2002607933 Ry
     enthalpy           new  =      -8.2005396865 Ry

     CASE: enthalpy          _new < enthalpy          _old

     new trust radius        =       0.0023826793 bohr
     new conv_thr            =       0.0000000100 Ry

     new unit-cell volume =     68.56425 a.u.^3 (    10.16017 Ang^3 )
     density =      4.70042 g/cm^3

[...]

ATOMIC_POSITIONS (alat)
Si              -0.0000000000        0.0000000000        0.0000000000

     Writing config-only to output data dir ./tmp/vcrelax.save/ :
     XML data file
     NEW-OLD atomic charge density approx. for the potential

[...]

     Threshold (ethr) on eigenvalues was too large:
     Diagonalizing with lowered threshold

     Davidson diagonalization with overlap
     ethr =  5.09E-10,  avg # of iterations =  4.2

[...]

     Energy error            =      1.3E-05 Ry
     Gradient error          =      0.0E+00 Ry/Bohr
     Cell gradient error     =      4.3E-01 kbar

     bfgs converged in   4 scf cycles and   3 bfgs steps
     (criteria: energy <  1.0E-04 Ry, force <  1.0E-03 Ry/Bohr, cell <  5.0E-01 kbar)

     End of BFGS Geometry Optimization

     Final enthalpy           =      -8.2005528414 Ry

     File ./tmp/vcrelax.bfgs deleted, as requested
Begin final coordinates
     new unit-cell volume =     68.56425 a.u.^3 (    10.16017 Ang^3 )
     density =      4.70042 g/cm^3

CELL_PARAMETERS (alat=  6.79800000)
  -0.477868151  -0.000000000   0.477868151
  -0.000000000   0.477868151   0.477868151
  -0.477868151   0.477868151  -0.000000000

ATOMIC_POSITIONS (alat)
Si              -0.0000000000        0.0000000000        0.0000000000
End final coordinates

     Writing config-only to output data dir ./tmp/vcrelax.save/ :
     XML data file

     Final scf calculation at the relaxed structure.
     The G-vectors are recalculated for the final unit cell
     Results may differ from those at the preceding step.

     Using Slab Decomposition

     bravais-lattice index     =            2
     lattice parameter (alat)  =       6.7980  a.u.
     unit-cell volume          =      68.5643 (a.u.)^3
     number of atoms/cell      =            1
     number of atomic types    =            1
     number of electrons       =         4.00
     number of Kohn-Sham states=            6
     kinetic-energy cutoff     =      60.0000  Ry
     charge density cutoff     =     240.0000  Ry
     scf convergence threshold =      1.0E-08
     mixing beta               =       0.7000
     number of iterations used =            8  plain     mixing
     press convergence thresh. =      5.0E-01
     Exchange-correlation= SLA  PW   NOGX NOGC
                           (   1   4   0   0   0   0   0)

     celldm(1)=   6.798000  celldm(2)=   0.000000  celldm(3)=   0.000000
     celldm(4)=   0.000000  celldm(5)=   0.000000  celldm(6)=   0.000000

     crystal axes: (cart. coord. in units of alat)
               a(1) = (  -0.477868  -0.000000   0.477868 )
               a(2) = (  -0.000000   0.477868   0.477868 )
               a(3) = (  -0.477868   0.477868  -0.000000 )

     reciprocal axes: (cart. coord. in units 2 pi/alat)
               b(1) = ( -1.046314 -1.046314  1.046314 )
               b(2) = (  1.046314  1.046314  1.046314 )
               b(3) = ( -1.046314  1.046314 -1.046314 )

     PseudoPot. # 1 for Si read from file:
     ./PSEUDO/Si.LDA.upf
     MD5 check sum: 9e2d726316af3d4752eea8ab0afbb951
     Pseudo is Norm-conserving + core correction, Zval =  4.0
     Generated using ONCVPSP code by D. R. Hamann
     Using radial grid of 1510 points,  6 beta functions with:
                l(1) =   0
                l(2) =   0
                l(3) =   1
                l(4) =   1
                l(5) =   2
                l(6) =   2

     atomic species   valence    mass     pseudopotential
     Si                4.00    28.76000     Si( 1.00)

     48 Sym. Ops., with inversion, found

   Cartesian axes

     site n.     atom                  positions (alat units)
         1        Si     tau(   1) = (  -0.0000000   0.0000000   0.0000000  )

     number of k points=    16 (tetrahedron method)
                       cart. coord. in units 2pi/alat
        k(    1) = (   0.0000000   0.0000000   0.0000000), wk =   0.0092593
        k(    2) = (  -0.1743856   0.1743856  -0.1743856), wk =   0.0740741
        k(    3) = (  -0.3487712   0.3487712  -0.3487712), wk =   0.0740741
        k(    4) = (   0.5231569  -0.5231569   0.5231569), wk =   0.0370370
        k(    5) = (  -0.0000000   0.3487712  -0.0000000), wk =   0.0555556
        k(    6) = (  -0.1743856   0.5231569  -0.1743856), wk =   0.2222222
        k(    7) = (   0.6975425  -0.3487712   0.6975425), wk =   0.2222222
        k(    8) = (   0.5231569  -0.1743856   0.5231569), wk =   0.2222222
        k(    9) = (   0.3487712   0.0000000   0.3487712), wk =   0.1111111
        k(   10) = (  -0.0000000   0.6975425  -0.0000000), wk =   0.0555556
        k(   11) = (   0.8719281  -0.1743856   0.8719281), wk =   0.2222222
        k(   12) = (   0.6975425   0.0000000   0.6975425), wk =   0.1111111
        k(   13) = (   0.0000000  -1.0463137   0.0000000), wk =   0.0277778
        k(   14) = (   0.6975425  -0.3487712   1.0463137), wk =   0.2222222
        k(   15) = (   0.5231569  -0.1743856   0.8719281), wk =   0.2222222
        k(   16) = (  -0.3487712  -1.0463137   0.0000000), wk =   0.1111111

     Initial potential from superposition of free atoms

     starting charge       3.9994, renormalised to       4.0000
     Starting wfcs are    4 randomized atomic wfcs +    2 random wfcs

     Self-consistent Calculation

     iteration #  1     ecut=    60.00 Ry     beta= 0.70
     Davidson diagonalization with overlap
     c_bands:  1 eigenvalues not converged
     c_bands:  2 eigenvalues not converged
     c_bands:  1 eigenvalues not converged
     ethr =  1.00E-06,  avg # of iterations = 15.9

[...]

     total energy              =      -8.43359665 Ry
     estimated scf accuracy    <       0.00000004 Ry

     iteration #  5     ecut=    60.00 Ry     beta= 0.70
     Davidson diagonalization with overlap
     ethr =  9.19E-10,  avg # of iterations =  1.8

     End of self-consistent calculation

[...]

          k = 0.5232-0.1744 0.8719 (   534 PWs)   bands (ev):

[...]

          k =-0.3488-1.0463 0.0000 (   534 PWs)   bands (ev):

    10.1335  12.2379  13.8633  16.4783  28.8398  31.6633

     the Fermi energy is    16.2194 ev

!    total energy              =      -8.43359666 Ry
     estimated scf accuracy    <          7.8E-10 Ry

     The total energy is the sum of the following terms:
     one-electron contribution =       6.25831948 Ry
     hartree contribution      =       0.01700931 Ry
     xc contribution           =      -3.41806561 Ry
     ewald contribution        =     -11.29085983 Ry

     convergence has been achieved in   5 iterations

     Forces acting on atoms (cartesian axes, Ry/au):

     atom    1 type  1   force =     0.00000000    0.00000000    0.00000000

     Total force =     0.000000     Total SCF correction =     0.000000

     Computing stress (Cartesian axis) and pressure

          total   stress  (Ry/bohr**3)                   (kbar)     P=      499.65
   0.00339653  -0.00000000  -0.00000000          499.65       -0.00       -0.00
  -0.00000000   0.00339653  -0.00000000           -0.00      499.65       -0.00
  -0.00000000  -0.00000000   0.00339653           -0.00       -0.00      499.65

     Writing all to output data dir ./tmp/vcrelax.save/ :
     XML data file, charge density, pseudopotentials, collected wavefunctions

     General routines

   This run was terminated on:  22:22: 5  15Dec2024

   JOB DONE.