     Program PWSCF v.7.3 starts on 15Dec2024 at 22:19:41

     Waiting for input...
     Reading input from standard input
     Message from routine read_cards :
     DEPRECATED: no units specified in ATOMIC_POSITIONS card
     Message from routine read_cards :
     ATOMIC_POSITIONS: units set to alat

     Current dimensions of program PWSCF are:
     Max number of different atomic species (ntypx) = 10
     Max number of k-points (npk) =  40000
     Max angular momentum in pseudopotentials (lmaxx) =  4
     Message from routine iosys:
     BEWARE:  force calculation with tetrahedra (not recommanded)
     Message from routine iosys:
     BEWARE: stress calculation with tetrahedra (not recommanded)
     [opt_tetra]  Optimized tetrahedron method is used.

     Using Slab Decomposition

     bravais-lattice index     =            2
     lattice parameter (alat)  =       7.2750  a.u.
     unit-cell volume          =      96.2585 (a.u.)^3
     number of atoms/cell      =            1
     number of atomic types    =            1
     number of electrons       =         4.00
     number of Kohn-Sham states=            6
     kinetic-energy cutoff     =      60.0000  Ry
     charge density cutoff     =     240.0000  Ry
     scf convergence threshold =      1.0E-06
     mixing beta               =       0.7000
     number of iterations used =            8  plain     mixing
     energy convergence thresh.=      1.0E-04
     force convergence thresh. =      1.0E-03
     press convergence thresh. =      5.0E-01
     Exchange-correlation= SLA  PW   NOGX NOGC
                           (   1   4   0   0   0   0   0)
     nstep                     =           50

     celldm(1)=   7.275000  celldm(2)=   0.000000  celldm(3)=   0.000000
     celldm(4)=   0.000000  celldm(5)=   0.000000  celldm(6)=   0.000000

     crystal axes: (cart. coord. in units of alat)
               a(1) = (  -0.500000   0.000000   0.500000 )
               a(2) = (   0.000000   0.500000   0.500000 )
               a(3) = (  -0.500000   0.500000   0.000000 )

     reciprocal axes: (cart. coord. in units 2 pi/alat)
               b(1) = ( -1.000000 -1.000000  1.000000 )
               b(2) = (  1.000000  1.000000  1.000000 )
               b(3) = ( -1.000000  1.000000 -1.000000 )

     PseudoPot. # 1 for Si read from file:
     ./PSEUDO/Si.LDA.upf
     MD5 check sum: 9e2d726316af3d4752eea8ab0afbb951
     Pseudo is Norm-conserving + core correction, Zval =  4.0
     Generated using ONCVPSP code by D. R. Hamann
     Using radial grid of 1510 points,  6 beta functions with:
                l(1) =   0
                l(2) =   0
                l(3) =   1
                l(4) =   1
                l(5) =   2
                l(6) =   2

     atomic species   valence    mass     pseudopotential
     Si                4.00    28.76000     Si( 1.00)

     48 Sym. Ops., with inversion, found

   Cartesian axes

     site n.     atom                  positions (alat units)
         1        Si     tau(   1) = (   0.0000000   0.0000000   0.0000000  )

     number of k points=    16 (tetrahedron method)
                       cart. coord. in units 2pi/alat
        k(    1) = (   0.0000000   0.0000000   0.0000000), wk =   0.0092593
        k(    2) = (  -0.1666667   0.1666667  -0.1666667), wk =   0.0740741
        k(    3) = (  -0.3333333   0.3333333  -0.3333333), wk =   0.0740741
        k(    4) = (   0.5000000  -0.5000000   0.5000000), wk =   0.0370370
        k(    5) = (   0.0000000   0.3333333   0.0000000), wk =   0.0555556
        k(    6) = (  -0.1666667   0.5000000  -0.1666667), wk =   0.2222222
        k(    7) = (   0.6666667  -0.3333333   0.6666667), wk =   0.2222222
        k(    8) = (   0.5000000  -0.1666667   0.5000000), wk =   0.2222222
        k(    9) = (   0.3333333   0.0000000   0.3333333), wk =   0.1111111
        k(   10) = (   0.0000000   0.6666667   0.0000000), wk =   0.0555556
        k(   11) = (   0.8333333  -0.1666667   0.8333333), wk =   0.2222222
        k(   12) = (   0.6666667   0.0000000   0.6666667), wk =   0.1111111
        k(   13) = (   0.0000000  -1.0000000   0.0000000), wk =   0.0277778
        k(   14) = (   0.6666667  -0.3333333   1.0000000), wk =   0.2222222
        k(   15) = (   0.5000000  -0.1666667   0.8333333), wk =   0.2222222
        k(   16) = (  -0.3333333  -1.0000000   0.0000000), wk =   0.1111111

     Initial potential from superposition of free atoms

     starting charge       3.9994, renormalised to       4.0000
     Starting wfcs are    4 randomized atomic wfcs +    2 random wfcs

     Self-consistent Calculation

     iteration #  1     ecut=    60.00 Ry     beta= 0.70
     Davidson diagonalization with overlap
     ethr =  1.00E-02,  avg # of iterations =  5.9

     Threshold (ethr) on eigenvalues was too large:
     Diagonalizing with lowered threshold

     Davidson diagonalization with overlap
     ethr =  1.06E-04,  avg # of iterations =  3.8

     total energy              =      -8.46744321 Ry
     estimated scf accuracy    <       0.00410244 Ry

[...]

     iteration #  3     ecut=    60.00 Ry     beta= 0.70
     Davidson diagonalization with overlap
     c_bands:  1 eigenvalues not converged
     ethr =  5.15E-06,  avg # of iterations =  4.1

[...]

     End of self-consistent calculation

          k = 0.0000 0.0000 0.0000 (   749 PWs)   bands (ev):

    -3.8093  21.8484  21.8484  21.8485  22.6795  22.6796

          k =-0.1667 0.1667-0.1667 (   761 PWs)   bands (ev):

[...]

     the Fermi energy is    10.7629 ev

!    total energy              =      -8.46752427 Ry
     estimated scf accuracy    <          3.1E-09 Ry

     The total energy is the sum of the following terms:
     one-electron contribution =       4.73687812 Ry
     hartree contribution      =       0.03462112 Ry
     xc contribution           =      -3.15547806 Ry
     ewald contribution        =     -10.08354546 Ry

     convergence has been achieved in   4 iterations

     Forces acting on atoms (cartesian axes, Ry/au):

     atom    1 type  1   force =     0.00000000    0.00000000    0.00000000

     Total force =     0.000000     Total SCF correction =     0.000000

     Computing stress (Cartesian axis) and pressure

          total   stress  (Ry/bohr**3)                   (kbar)     P=        0.03
   0.00000021   0.00000000   0.00000000            0.03        0.00        0.00
   0.00000000   0.00000021  -0.00000000            0.00        0.03       -0.00
   0.00000000  -0.00000000   0.00000021            0.00       -0.00        0.03

     BFGS Geometry Optimization
     Energy error            =      0.0E+00 Ry
     Gradient error          =      0.0E+00 Ry/Bohr
     Cell gradient error     =      1.0E+02 kbar

     number of scf cycles    =   1
     number of bfgs steps    =   0

     enthalpy           new  =      -8.4020890882 Ry

     new trust radius        =       0.0333370887 bohr
     new conv_thr            =       0.0000010000 Ry

     new unit-cell volume =     91.43524 a.u.^3 (    13.54930 Ang^3 )
     density =      3.52469 g/cm^3

CELL_PARAMETERS (alat=  7.27500000)
  -0.491505297   0.000000000   0.491505297
   0.000000000   0.491505297   0.491505297
  -0.491505297   0.491505297   0.000000000

ATOMIC_POSITIONS (alat)
Si               0.0000000000        0.0000000000        0.0000000000

     Writing config-only to output data dir ./tmp/vcrelax.save/ :
     XML data file
     NEW-OLD atomic charge density approx. for the potential

[...]

     Energy error            =      2.5E-03 Ry
     Gradient error          =      0.0E+00 Ry/Bohr
     Cell gradient error     =      5.2E+01 kbar

[...]

     enthalpy           old  =      -8.4020890882 Ry
     enthalpy           new  =      -8.4046060410 Ry

     CASE: enthalpy          _new < enthalpy          _old

[...]

     number of scf cycles    =   3
     number of bfgs steps    =   2

     enthalpy           old  =      -8.4046060410 Ry
     enthalpy           new  =      -8.4053706500 Ry

     CASE: enthalpy          _new < enthalpy          _old

     new trust radius        =       0.0030014401 bohr
     new conv_thr            =       0.0000000100 Ry

     new unit-cell volume =     87.14360 a.u.^3 (    12.91335 Ang^3 )
     density =      3.69827 g/cm^3

[...]

ATOMIC_POSITIONS (alat)
Si              -0.0000000000        0.0000000000        0.0000000000

     Writing config-only to output data dir ./tmp/vcrelax.save/ :
     XML data file
     NEW-OLD atomic charge density approx. for the potential

[...]

     Threshold (ethr) on eigenvalues was too large:
     Diagonalizing with lowered threshold

     Davidson diagonalization with overlap
     ethr =  7.20E-10,  avg # of iterations =  4.0

[...]

     Energy error            =      7.6E-06 Ry
     Gradient error          =      0.0E+00 Ry/Bohr
     Cell gradient error     =      5.4E-02 kbar

     bfgs converged in   4 scf cycles and   3 bfgs steps
     (criteria: energy <  1.0E-04 Ry, force <  1.0E-03 Ry/Bohr, cell <  5.0E-01 kbar)

     End of BFGS Geometry Optimization

     Final enthalpy           =      -8.4053782824 Ry

     File ./tmp/vcrelax.bfgs deleted, as requested
Begin final coordinates
     new unit-cell volume =     87.14360 a.u.^3 (    12.91335 Ang^3 )
     density =      3.69827 g/cm^3

CELL_PARAMETERS (alat=  7.27500000)
  -0.483691930   0.000000000   0.483691930
  -0.000000000   0.483691930   0.483691930
  -0.483691930   0.483691930   0.000000000

ATOMIC_POSITIONS (alat)
Si              -0.0000000000        0.0000000000        0.0000000000
End final coordinates

     Writing config-only to output data dir ./tmp/vcrelax.save/ :
     XML data file

     Final scf calculation at the relaxed structure.
     The G-vectors are recalculated for the final unit cell
     Results may differ from those at the preceding step.

     Using Slab Decomposition

     bravais-lattice index     =            2
     lattice parameter (alat)  =       7.2750  a.u.
     unit-cell volume          =      87.1436 (a.u.)^3
     number of atoms/cell      =            1
     number of atomic types    =            1
     number of electrons       =         4.00
     number of Kohn-Sham states=            6
     kinetic-energy cutoff     =      60.0000  Ry
     charge density cutoff     =     240.0000  Ry
     scf convergence threshold =      1.0E-08
     mixing beta               =       0.7000
     number of iterations used =            8  plain     mixing
     press convergence thresh. =      5.0E-01
     Exchange-correlation= SLA  PW   NOGX NOGC
                           (   1   4   0   0   0   0   0)

     celldm(1)=   7.275000  celldm(2)=   0.000000  celldm(3)=   0.000000
     celldm(4)=   0.000000  celldm(5)=   0.000000  celldm(6)=   0.000000

     crystal axes: (cart. coord. in units of alat)
               a(1) = (  -0.483692   0.000000   0.483692 )
               a(2) = (  -0.000000   0.483692   0.483692 )
               a(3) = (  -0.483692   0.483692   0.000000 )

     reciprocal axes: (cart. coord. in units 2 pi/alat)
               b(1) = ( -1.033716 -1.033716  1.033716 )
               b(2) = (  1.033716  1.033716  1.033716 )
               b(3) = ( -1.033716  1.033716 -1.033716 )

     PseudoPot. # 1 for Si read from file:
     ./PSEUDO/Si.LDA.upf
     MD5 check sum: 9e2d726316af3d4752eea8ab0afbb951
     Pseudo is Norm-conserving + core correction, Zval =  4.0
     Generated using ONCVPSP code by D. R. Hamann
     Using radial grid of 1510 points,  6 beta functions with:
                l(1) =   0
                l(2) =   0
                l(3) =   1
                l(4) =   1
                l(5) =   2
                l(6) =   2

     atomic species   valence    mass     pseudopotential
     Si                4.00    28.76000     Si( 1.00)

     48 Sym. Ops., with inversion, found

   Cartesian axes

     site n.     atom                  positions (alat units)
         1        Si     tau(   1) = (  -0.0000000   0.0000000   0.0000000  )

     number of k points=    16 (tetrahedron method)
                       cart. coord. in units 2pi/alat
        k(    1) = (   0.0000000   0.0000000   0.0000000), wk =   0.0092593
        k(    2) = (  -0.1722860   0.1722860  -0.1722860), wk =   0.0740741
        k(    3) = (  -0.3445719   0.3445719  -0.3445719), wk =   0.0740741
        k(    4) = (   0.5168579  -0.5168579   0.5168579), wk =   0.0370370
        k(    5) = (   0.0000000   0.3445719   0.0000000), wk =   0.0555556
        k(    6) = (  -0.1722860   0.5168579  -0.1722860), wk =   0.2222222
        k(    7) = (   0.6891439  -0.3445719   0.6891439), wk =   0.2222222
        k(    8) = (   0.5168579  -0.1722860   0.5168579), wk =   0.2222222
        k(    9) = (   0.3445719   0.0000000   0.3445719), wk =   0.1111111
        k(   10) = (   0.0000000   0.6891439   0.0000000), wk =   0.0555556
        k(   11) = (   0.8614299  -0.1722860   0.8614299), wk =   0.2222222
        k(   12) = (   0.6891439   0.0000000   0.6891439), wk =   0.1111111
        k(   13) = (   0.0000000  -1.0337158   0.0000000), wk =   0.0277778
        k(   14) = (   0.6891439  -0.3445719   1.0337158), wk =   0.2222222
        k(   15) = (   0.5168579  -0.1722860   0.8614299), wk =   0.2222222
        k(   16) = (  -0.3445719  -1.0337158   0.0000000), wk =   0.1111111

     Initial potential from superposition of free atoms

     starting charge       3.9994, renormalised to       4.0000
     Starting wfcs are    4 randomized atomic wfcs +    2 random wfcs

     Self-consistent Calculation

     iteration #  1     ecut=    60.00 Ry     beta= 0.70
     Davidson diagonalization with overlap
     c_bands:  1 eigenvalues not converged
     c_bands:  1 eigenvalues not converged
     c_bands:  2 eigenvalues not converged
     c_bands:  1 eigenvalues not converged
     ethr =  1.00E-06,  avg # of iterations = 16.3

[...]

     total energy              =      -8.46461661 Ry
     estimated scf accuracy    <       0.00000002 Ry

     iteration #  5     ecut=    60.00 Ry     beta= 0.70
     Davidson diagonalization with overlap
     ethr =  4.30E-10,  avg # of iterations =  2.8

     End of self-consistent calculation

[...]

          k = 0.5169-0.1723 0.8614 (   692 PWs)   bands (ev):

[...]

          k =-0.3446-1.0337 0.0000 (   690 PWs)   bands (ev):

     7.3593   8.6665  10.6093  11.9342  23.5514  24.9644

     the Fermi energy is    12.2534 ev

!    total energy              =      -8.46461661 Ry
     estimated scf accuracy    <          1.3E-10 Ry

     The total energy is the sum of the following terms:
     one-electron contribution =       5.16051012 Ry
     hartree contribution      =       0.02473665 Ry
     xc contribution           =      -3.22634292 Ry
     ewald contribution        =     -10.42352047 Ry

     convergence has been achieved in   5 iterations

     Forces acting on atoms (cartesian axes, Ry/au):

     atom    1 type  1   force =     0.00000000    0.00000000    0.00000000

     Total force =     0.000000     Total SCF correction =     0.000000

     Computing stress (Cartesian axis) and pressure

          total   stress  (Ry/bohr**3)                   (kbar)     P=      100.00
   0.00067980  -0.00000000   0.00000000          100.00       -0.00        0.00
  -0.00000000   0.00067980   0.00000000           -0.00      100.00        0.00
   0.00000000   0.00000000   0.00067980            0.00        0.00      100.00

     Writing all to output data dir ./tmp/vcrelax.save/ :
     XML data file, charge density, pseudopotentials, collected wavefunctions

     General routines

   This run was terminated on:  22:19:46  15Dec2024

   JOB DONE.