     Program PWSCF v.7.3 starts on 15Dec2024 at 22:10: 2

     Waiting for input...
     Reading input from standard input
     Message from routine read_cards :
     DEPRECATED: no units specified in ATOMIC_POSITIONS card
     Message from routine read_cards :
     ATOMIC_POSITIONS: units set to alat

     Current dimensions of program PWSCF are:
     Max number of different atomic species (ntypx) = 10
     Max number of k-points (npk) =  40000
     Max angular momentum in pseudopotentials (lmaxx) =  4
     Message from routine iosys:
     BEWARE:  force calculation with tetrahedra (not recommanded)
     Message from routine iosys:
     BEWARE: stress calculation with tetrahedra (not recommanded)
     [opt_tetra]  Optimized tetrahedron method is used.

     Using Slab Decomposition

     bravais-lattice index     =            2
     lattice parameter (alat)  =       9.2487  a.u.
     unit-cell volume          =     197.7799 (a.u.)^3
     number of atoms/cell      =            2
     number of atomic types    =            1
     number of electrons       =         8.00
     number of Kohn-Sham states=            8
     kinetic-energy cutoff     =      60.0000  Ry
     charge density cutoff     =     240.0000  Ry
     scf convergence threshold =      1.0E-06
     mixing beta               =       0.7000
     number of iterations used =            8  plain     mixing
     energy convergence thresh.=      1.0E-04
     force convergence thresh. =      1.0E-03
     press convergence thresh. =      5.0E-01
     Exchange-correlation= SLA  PW   NOGX NOGC
                           (   1   4   0   0   0   0   0)
     nstep                     =           50

     celldm(1)=   9.248700  celldm(2)=   0.000000  celldm(3)=   0.000000
     celldm(4)=   0.000000  celldm(5)=   0.000000  celldm(6)=   0.000000

     crystal axes: (cart. coord. in units of alat)
               a(1) = (  -0.500000   0.000000   0.500000 )
               a(2) = (   0.000000   0.500000   0.500000 )
               a(3) = (  -0.500000   0.500000   0.000000 )

     reciprocal axes: (cart. coord. in units 2 pi/alat)
               b(1) = ( -1.000000 -1.000000  1.000000 )
               b(2) = (  1.000000  1.000000  1.000000 )
               b(3) = ( -1.000000  1.000000 -1.000000 )

     PseudoPot. # 1 for Si read from file:
     ./PSEUDO/Si.LDA.upf
     MD5 check sum: 9e2d726316af3d4752eea8ab0afbb951
     Pseudo is Norm-conserving + core correction, Zval =  4.0
     Generated using ONCVPSP code by D. R. Hamann
     Using radial grid of 1510 points,  6 beta functions with:
                l(1) =   0
                l(2) =   0
                l(3) =   1
                l(4) =   1
                l(5) =   2
                l(6) =   2

     atomic species   valence    mass     pseudopotential
     Si                4.00    28.76000     Si( 1.00)

     48 Sym. Ops., with inversion, found (24 have fractional translation)

   Cartesian axes

     site n.     atom                  positions (alat units)
         1        Si     tau(   1) = (   0.0000000   0.0000000   0.0000000  )
         2        Si     tau(   2) = (   0.2500000   0.2500000   0.2500000  )

     number of k points=    16 (tetrahedron method)
                       cart. coord. in units 2pi/alat
        k(    1) = (   0.0000000   0.0000000   0.0000000), wk =   0.0092593
        k(    2) = (  -0.1666667   0.1666667  -0.1666667), wk =   0.0740741
        k(    3) = (  -0.3333333   0.3333333  -0.3333333), wk =   0.0740741
        k(    4) = (   0.5000000  -0.5000000   0.5000000), wk =   0.0370370
        k(    5) = (   0.0000000   0.3333333   0.0000000), wk =   0.0555556
        k(    6) = (  -0.1666667   0.5000000  -0.1666667), wk =   0.2222222
        k(    7) = (   0.6666667  -0.3333333   0.6666667), wk =   0.2222222
        k(    8) = (   0.5000000  -0.1666667   0.5000000), wk =   0.2222222
        k(    9) = (   0.3333333   0.0000000   0.3333333), wk =   0.1111111
        k(   10) = (   0.0000000   0.6666667   0.0000000), wk =   0.0555556
        k(   11) = (   0.8333333  -0.1666667   0.8333333), wk =   0.2222222
        k(   12) = (   0.6666667   0.0000000   0.6666667), wk =   0.1111111
        k(   13) = (   0.0000000  -1.0000000   0.0000000), wk =   0.0277778
        k(   14) = (   0.6666667  -0.3333333   1.0000000), wk =   0.2222222
        k(   15) = (   0.5000000  -0.1666667   0.8333333), wk =   0.2222222
        k(   16) = (  -0.3333333  -1.0000000   0.0000000), wk =   0.1111111

     Initial potential from superposition of free atoms

     starting charge       7.9989, renormalised to       8.0000
     Starting wfcs are    8 randomized atomic wfcs

     Self-consistent Calculation

     iteration #  1     ecut=    60.00 Ry     beta= 0.70
     Davidson diagonalization with overlap
     ethr =  1.00E-02,  avg # of iterations =  5.1

     total energy              =     -16.95044705 Ry
     estimated scf accuracy    <       0.09005086 Ry

[...]

     End of self-consistent calculation

          k = 0.0000 0.0000 0.0000 (  1471 PWs)   bands (ev):

    -4.6168   9.7697   9.7697   9.7697  12.3836  12.3836  12.3837  16.7940

          k =-0.1667 0.1667-0.1667 (  1531 PWs)   bands (ev):

[...]

     the Fermi energy is     9.6392 ev

!    total energy              =     -16.95792331 Ry
     estimated scf accuracy    <       0.00000013 Ry

     The total energy is the sum of the following terms:
     one-electron contribution =       7.42450232 Ry
     hartree contribution      =       0.84743735 Ry
     xc contribution           =      -6.59183413 Ry
     ewald contribution        =     -18.63802885 Ry

     convergence has been achieved in   4 iterations

     Forces acting on atoms (cartesian axes, Ry/au):

     atom    1 type  1   force =    -0.00000000   -0.00000000    0.00000000
     atom    2 type  1   force =     0.00000000    0.00000000   -0.00000000

     Total force =     0.000000     Total SCF correction =     0.000000

     Computing stress (Cartesian axis) and pressure

          total   stress  (Ry/bohr**3)                   (kbar)     P=      507.33
   0.00344878   0.00000000   0.00000000          507.33        0.00        0.00
   0.00000000   0.00344878  -0.00000000            0.00      507.33       -0.00
   0.00000000  -0.00000000   0.00344878            0.00       -0.00      507.33

     BFGS Geometry Optimization
     Energy error            =      0.0E+00 Ry
     Gradient error          =      1.0E-33 Ry/Bohr
     Cell gradient error     =      9.3E+01 kbar

     number of scf cycles    =   1
     number of bfgs steps    =   0

     enthalpy           new  =     -16.1512351748 Ry

     new trust radius        =       0.0442956651 bohr
     new conv_thr            =       0.0000010000 Ry

     new unit-cell volume =    188.58202 a.u.^3 (    27.94497 Ang^3 )
     density =      3.41794 g/cm^3

CELL_PARAMETERS (alat=  9.24870000)
  -0.492125732  -0.000000000   0.492125732
   0.000000000   0.492125732   0.492125732
  -0.492125732   0.492125732  -0.000000000

ATOMIC_POSITIONS (alat)
Si              -0.0000000000       -0.0000000000        0.0000000000
Si               0.2460628660        0.2460628660        0.2460628660

     Writing config-only to output data dir ./tmp/vcrelax.save/ :
     XML data file
     NEW-OLD atomic charge density approx. for the potential

[...]

     Energy error            =      1.6E-03 Ry
     Gradient error          =      3.2E-32 Ry/Bohr
     Cell gradient error     =      4.6E+01 kbar

[...]

     enthalpy           old  =     -16.1512351748 Ry
     enthalpy           new  =     -16.1528480540 Ry

     CASE: enthalpy          _new < enthalpy          _old

[...]

     Threshold (ethr) on eigenvalues was too large:
     Diagonalizing with lowered threshold

     Davidson diagonalization with overlap
     ethr =  6.15E-08,  avg # of iterations =  1.6

[...]

     number of scf cycles    =   3
     number of bfgs steps    =   2

     enthalpy           old  =     -16.1528480540 Ry
     enthalpy           new  =     -16.1532828473 Ry

     CASE: enthalpy          _new < enthalpy          _old

     new trust radius        =       0.0004548721 bohr
     new conv_thr            =       0.0000000100 Ry

     new unit-cell volume =    191.42351 a.u.^3 (    28.36604 Ang^3 )
     density =      3.36720 g/cm^3

[...]

ATOMIC_POSITIONS (alat)
Si               0.0000000000        0.0000000000        0.0000000000
Si               0.2472925713        0.2472925713        0.2472925713

     Writing config-only to output data dir ./tmp/vcrelax.save/ :
     XML data file
     NEW-OLD atomic charge density approx. for the potential

[...]

     Threshold (ethr) on eigenvalues was too large:
     Diagonalizing with lowered threshold

     Davidson diagonalization with overlap
     ethr =  1.14E-10,  avg # of iterations =  4.1

[...]

     Energy error            =      4.8E-07 Ry
     Gradient error          =      6.6E-32 Ry/Bohr
     Cell gradient error     =      2.7E-02 kbar

     bfgs converged in   4 scf cycles and   3 bfgs steps
     (criteria: energy <  1.0E-04 Ry, force <  1.0E-03 Ry/Bohr, cell <  5.0E-01 kbar)

     End of BFGS Geometry Optimization

     Final enthalpy           =     -16.1532833280 Ry

     File ./tmp/vcrelax.bfgs deleted, as requested
Begin final coordinates
     new unit-cell volume =    191.42351 a.u.^3 (    28.36604 Ang^3 )
     density =      3.36720 g/cm^3

CELL_PARAMETERS (alat=  9.24870000)
  -0.494585143  -0.000000000   0.494585143
   0.000000000   0.494585143   0.494585143
  -0.494585143   0.494585143  -0.000000000

ATOMIC_POSITIONS (alat)
Si               0.0000000000        0.0000000000        0.0000000000
Si               0.2472925713        0.2472925713        0.2472925713
End final coordinates

     Writing config-only to output data dir ./tmp/vcrelax.save/ :
     XML data file

     Final scf calculation at the relaxed structure.
     The G-vectors are recalculated for the final unit cell
     Results may differ from those at the preceding step.

     Using Slab Decomposition

     bravais-lattice index     =            2
     lattice parameter (alat)  =       9.2487  a.u.
     unit-cell volume          =     191.4235 (a.u.)^3
     number of atoms/cell      =            2
     number of atomic types    =            1
     number of electrons       =         8.00
     number of Kohn-Sham states=            8
     kinetic-energy cutoff     =      60.0000  Ry
     charge density cutoff     =     240.0000  Ry
     scf convergence threshold =      1.0E-08
     mixing beta               =       0.7000
     number of iterations used =            8  plain     mixing
     press convergence thresh. =      5.0E-01
     Exchange-correlation= SLA  PW   NOGX NOGC
                           (   1   4   0   0   0   0   0)

     celldm(1)=   9.248700  celldm(2)=   0.000000  celldm(3)=   0.000000
     celldm(4)=   0.000000  celldm(5)=   0.000000  celldm(6)=   0.000000

     crystal axes: (cart. coord. in units of alat)
               a(1) = (  -0.494585  -0.000000   0.494585 )
               a(2) = (   0.000000   0.494585   0.494585 )
               a(3) = (  -0.494585   0.494585  -0.000000 )

     reciprocal axes: (cart. coord. in units 2 pi/alat)
               b(1) = ( -1.010948 -1.010948  1.010948 )
               b(2) = (  1.010948  1.010948  1.010948 )
               b(3) = ( -1.010948  1.010948 -1.010948 )

     PseudoPot. # 1 for Si read from file:
     ./PSEUDO/Si.LDA.upf
     MD5 check sum: 9e2d726316af3d4752eea8ab0afbb951
     Pseudo is Norm-conserving + core correction, Zval =  4.0
     Generated using ONCVPSP code by D. R. Hamann
     Using radial grid of 1510 points,  6 beta functions with:
                l(1) =   0
                l(2) =   0
                l(3) =   1
                l(4) =   1
                l(5) =   2
                l(6) =   2

     atomic species   valence    mass     pseudopotential
     Si                4.00    28.76000     Si( 1.00)

     48 Sym. Ops., with inversion, found (24 have fractional translation)

   Cartesian axes

     site n.     atom                  positions (alat units)
         1        Si     tau(   1) = (   0.0000000   0.0000000   0.0000000  )
         2        Si     tau(   2) = (   0.2472926   0.2472926   0.2472926  )

     number of k points=    16 (tetrahedron method)
                       cart. coord. in units 2pi/alat
        k(    1) = (   0.0000000   0.0000000   0.0000000), wk =   0.0092593
        k(    2) = (  -0.1684914   0.1684914  -0.1684914), wk =   0.0740741
        k(    3) = (  -0.3369828   0.3369828  -0.3369828), wk =   0.0740741
        k(    4) = (   0.5054741  -0.5054741   0.5054741), wk =   0.0370370
        k(    5) = (  -0.0000000   0.3369828  -0.0000000), wk =   0.0555556
        k(    6) = (  -0.1684914   0.5054741  -0.1684914), wk =   0.2222222
        k(    7) = (   0.6739655  -0.3369828   0.6739655), wk =   0.2222222
        k(    8) = (   0.5054741  -0.1684914   0.5054741), wk =   0.2222222
        k(    9) = (   0.3369828  -0.0000000   0.3369828), wk =   0.1111111
        k(   10) = (  -0.0000000   0.6739655  -0.0000000), wk =   0.0555556
        k(   11) = (   0.8424569  -0.1684914   0.8424569), wk =   0.2222222
        k(   12) = (   0.6739655  -0.0000000   0.6739655), wk =   0.1111111
        k(   13) = (   0.0000000  -1.0109483   0.0000000), wk =   0.0277778
        k(   14) = (   0.6739655  -0.3369828   1.0109483), wk =   0.2222222
        k(   15) = (   0.5054741  -0.1684914   0.8424569), wk =   0.2222222
        k(   16) = (  -0.3369828  -1.0109483   0.0000000), wk =   0.1111111

     Initial potential from superposition of free atoms

     starting charge       7.9989, renormalised to       8.0000
     Starting wfcs are    8 randomized atomic wfcs

     Self-consistent Calculation

     iteration #  1     ecut=    60.00 Ry     beta= 0.70
     Davidson diagonalization with overlap
     c_bands:  1 eigenvalues not converged
     c_bands:  1 eigenvalues not converged
     c_bands:  2 eigenvalues not converged
     c_bands:  1 eigenvalues not converged
     ethr =  1.00E-06,  avg # of iterations = 15.6

[...]

     total energy              =     -16.93404544 Ry
     estimated scf accuracy    <       0.00000004 Ry

     iteration #  6     ecut=    60.00 Ry     beta= 0.70
     Davidson diagonalization with overlap
     ethr =  4.39E-10,  avg # of iterations =  1.1

     End of self-consistent calculation

[...]

          k = 0.5055-0.1685 0.8425 (  1512 PWs)   bands (ev):

[...]

          k =-0.3370-1.0109 0.0000 (  1510 PWs)   bands (ev):

     1.3480   1.3480   5.0048   5.0048  12.7463  12.7463  18.1106  18.1106

     the Fermi energy is    10.0202 ev

!    total energy              =     -16.93404544 Ry
     estimated scf accuracy    <          2.8E-09 Ry

     The total energy is the sum of the following terms:
     one-electron contribution =       7.72299170 Ry
     hartree contribution      =       0.82150560 Ry
     xc contribution           =      -6.63645950 Ry
     ewald contribution        =     -18.84208324 Ry

     convergence has been achieved in   6 iterations

     Forces acting on atoms (cartesian axes, Ry/au):

     atom    1 type  1   force =     0.00000000   -0.00000000    0.00000000
     atom    2 type  1   force =    -0.00000000    0.00000000   -0.00000000

     Total force =     0.000000     Total SCF correction =     0.000000

     Computing stress (Cartesian axis) and pressure

          total   stress  (Ry/bohr**3)                   (kbar)     P=      599.97
   0.00407854  -0.00000000  -0.00000000          599.97       -0.00       -0.00
  -0.00000000   0.00407854   0.00000000           -0.00      599.97        0.00
  -0.00000000   0.00000000   0.00407854           -0.00        0.00      599.97

     Writing all to output data dir ./tmp/vcrelax.save/ :
     XML data file, charge density, pseudopotentials, collected wavefunctions

     General routines

   This run was terminated on:  22:10:19  15Dec2024

   JOB DONE.