     Program PWSCF v.7.3 starts on 15Dec2024 at 22: 8:53

     Waiting for input...
     Reading input from standard input
     Message from routine read_cards :
     DEPRECATED: no units specified in ATOMIC_POSITIONS card
     Message from routine read_cards :
     ATOMIC_POSITIONS: units set to alat

     Current dimensions of program PWSCF are:
     Max number of different atomic species (ntypx) = 10
     Max number of k-points (npk) =  40000
     Max angular momentum in pseudopotentials (lmaxx) =  4
     Message from routine iosys:
     BEWARE:  force calculation with tetrahedra (not recommanded)
     Message from routine iosys:
     BEWARE: stress calculation with tetrahedra (not recommanded)
     [opt_tetra]  Optimized tetrahedron method is used.

     Using Slab Decomposition

     bravais-lattice index     =            2
     lattice parameter (alat)  =       9.3800  a.u.
     unit-cell volume          =     206.3234 (a.u.)^3
     number of atoms/cell      =            2
     number of atomic types    =            1
     number of electrons       =         8.00
     number of Kohn-Sham states=            8
     kinetic-energy cutoff     =      60.0000  Ry
     charge density cutoff     =     240.0000  Ry
     scf convergence threshold =      1.0E-06
     mixing beta               =       0.7000
     number of iterations used =            8  plain     mixing
     energy convergence thresh.=      1.0E-04
     force convergence thresh. =      1.0E-03
     press convergence thresh. =      5.0E-01
     Exchange-correlation= SLA  PW   NOGX NOGC
                           (   1   4   0   0   0   0   0)
     nstep                     =           50

     celldm(1)=   9.380000  celldm(2)=   0.000000  celldm(3)=   0.000000
     celldm(4)=   0.000000  celldm(5)=   0.000000  celldm(6)=   0.000000

     crystal axes: (cart. coord. in units of alat)
               a(1) = (  -0.500000   0.000000   0.500000 )
               a(2) = (   0.000000   0.500000   0.500000 )
               a(3) = (  -0.500000   0.500000   0.000000 )

     reciprocal axes: (cart. coord. in units 2 pi/alat)
               b(1) = ( -1.000000 -1.000000  1.000000 )
               b(2) = (  1.000000  1.000000  1.000000 )
               b(3) = ( -1.000000  1.000000 -1.000000 )

     PseudoPot. # 1 for Si read from file:
     ./PSEUDO/Si.LDA.upf
     MD5 check sum: 9e2d726316af3d4752eea8ab0afbb951
     Pseudo is Norm-conserving + core correction, Zval =  4.0
     Generated using ONCVPSP code by D. R. Hamann
     Using radial grid of 1510 points,  6 beta functions with:
                l(1) =   0
                l(2) =   0
                l(3) =   1
                l(4) =   1
                l(5) =   2
                l(6) =   2

     atomic species   valence    mass     pseudopotential
     Si                4.00    28.76000     Si( 1.00)

     48 Sym. Ops., with inversion, found (24 have fractional translation)

   Cartesian axes

     site n.     atom                  positions (alat units)
         1        Si     tau(   1) = (   0.0000000   0.0000000   0.0000000  )
         2        Si     tau(   2) = (   0.2500000   0.2500000   0.2500000  )

     number of k points=    16 (tetrahedron method)
                       cart. coord. in units 2pi/alat
        k(    1) = (   0.0000000   0.0000000   0.0000000), wk =   0.0092593
        k(    2) = (  -0.1666667   0.1666667  -0.1666667), wk =   0.0740741
        k(    3) = (  -0.3333333   0.3333333  -0.3333333), wk =   0.0740741
        k(    4) = (   0.5000000  -0.5000000   0.5000000), wk =   0.0370370
        k(    5) = (   0.0000000   0.3333333   0.0000000), wk =   0.0555556
        k(    6) = (  -0.1666667   0.5000000  -0.1666667), wk =   0.2222222
        k(    7) = (   0.6666667  -0.3333333   0.6666667), wk =   0.2222222
        k(    8) = (   0.5000000  -0.1666667   0.5000000), wk =   0.2222222
        k(    9) = (   0.3333333   0.0000000   0.3333333), wk =   0.1111111
        k(   10) = (   0.0000000   0.6666667   0.0000000), wk =   0.0555556
        k(   11) = (   0.8333333  -0.1666667   0.8333333), wk =   0.2222222
        k(   12) = (   0.6666667   0.0000000   0.6666667), wk =   0.1111111
        k(   13) = (   0.0000000  -1.0000000   0.0000000), wk =   0.0277778
        k(   14) = (   0.6666667  -0.3333333   1.0000000), wk =   0.2222222
        k(   15) = (   0.5000000  -0.1666667   0.8333333), wk =   0.2222222
        k(   16) = (  -0.3333333  -1.0000000   0.0000000), wk =   0.1111111

     Initial potential from superposition of free atoms

     starting charge       7.9989, renormalised to       8.0000
     Starting wfcs are    8 randomized atomic wfcs

     Self-consistent Calculation

     iteration #  1     ecut=    60.00 Ry     beta= 0.70
     Davidson diagonalization with overlap
     ethr =  1.00E-02,  avg # of iterations =  5.1

     total energy              =     -16.97732914 Ry
     estimated scf accuracy    <       0.08505931 Ry

[...]

     End of self-consistent calculation

          k = 0.0000 0.0000 0.0000 (  1639 PWs)   bands (ev):

    -4.8175   9.2045   9.2045   9.2045  11.8143  11.8143  11.8143  15.6797

          k =-0.1667 0.1667-0.1667 (  1609 PWs)   bands (ev):

[...]

     the Fermi energy is     9.1616 ev

!    total energy              =     -16.98418007 Ry
     estimated scf accuracy    <       0.00000011 Ry

     The total energy is the sum of the following terms:
     one-electron contribution =       7.04706986 Ry
     hartree contribution      =       0.88082076 Ry
     xc contribution           =      -6.53493450 Ry
     ewald contribution        =     -18.37713619 Ry

     convergence has been achieved in   4 iterations

     Forces acting on atoms (cartesian axes, Ry/au):

     atom    1 type  1   force =     0.00000000    0.00000000   -0.00000000
     atom    2 type  1   force =    -0.00000000   -0.00000000    0.00000000

     Total force =     0.000000     Total SCF correction =     0.000000

     Computing stress (Cartesian axis) and pressure

          total   stress  (Ry/bohr**3)                   (kbar)     P=      400.06
   0.00271956   0.00000000   0.00000000          400.06        0.00        0.00
   0.00000000   0.00271956  -0.00000000            0.00      400.06       -0.00
   0.00000000  -0.00000000   0.00271956            0.00       -0.00      400.06

     BFGS Geometry Optimization
     Energy error            =      0.0E+00 Ry
     Gradient error          =      6.7E-33 Ry/Bohr
     Cell gradient error     =      1.0E+02 kbar

     number of scf cycles    =   1
     number of bfgs steps    =   0

     enthalpy           new  =     -16.2829010276 Ry

     new trust radius        =       0.0487923841 bohr
     new conv_thr            =       0.0000010000 Ry

     new unit-cell volume =    195.98818 a.u.^3 (    29.04245 Ang^3 )
     density =      3.28878 g/cm^3

CELL_PARAMETERS (alat=  9.38000000)
  -0.491507847  -0.000000000   0.491507847
   0.000000000   0.491507847   0.491507847
  -0.491507847   0.491507847  -0.000000000

ATOMIC_POSITIONS (alat)
Si               0.0000000000        0.0000000000       -0.0000000000
Si               0.2457539237        0.2457539237        0.2457539237

     Writing config-only to output data dir ./tmp/vcrelax.save/ :
     XML data file
     NEW-OLD atomic charge density approx. for the potential

[...]

     Energy error            =      2.5E-03 Ry
     Gradient error          =      0.0E+00 Ry/Bohr
     Cell gradient error     =      3.2E+01 kbar

[...]

     enthalpy           old  =     -16.2829010276 Ry
     enthalpy           new  =     -16.2854447750 Ry

     CASE: enthalpy          _new < enthalpy          _old

[...]

     Threshold (ethr) on eigenvalues was too large:
     Diagonalizing with lowered threshold

     Davidson diagonalization with overlap
     ethr =  4.78E-08,  avg # of iterations =  1.9

[...]

     number of scf cycles    =   3
     number of bfgs steps    =   2

     enthalpy           old  =     -16.2854447750 Ry
     enthalpy           new  =     -16.2856966115 Ry

     CASE: enthalpy          _new < enthalpy          _old

     new trust radius        =       0.0004523297 bohr
     new conv_thr            =       0.0000000100 Ry

     new unit-cell volume =    198.31349 a.u.^3 (    29.38703 Ang^3 )
     density =      3.25022 g/cm^3

[...]

ATOMIC_POSITIONS (alat)
Si               0.0000000000        0.0000000000       -0.0000000000
Si               0.2467220254        0.2467220254        0.2467220254

     Writing config-only to output data dir ./tmp/vcrelax.save/ :
     XML data file
     NEW-OLD atomic charge density approx. for the potential

[...]

     Threshold (ethr) on eigenvalues was too large:
     Diagonalizing with lowered threshold

     Davidson diagonalization with overlap
     ethr =  1.19E-10,  avg # of iterations =  4.1

[...]

     Energy error            =      4.3E-07 Ry
     Gradient error          =      3.3E-32 Ry/Bohr
     Cell gradient error     =      3.3E-02 kbar

     bfgs converged in   4 scf cycles and   3 bfgs steps
     (criteria: energy <  1.0E-04 Ry, force <  1.0E-03 Ry/Bohr, cell <  5.0E-01 kbar)

     End of BFGS Geometry Optimization

     Final enthalpy           =     -16.2856970372 Ry

     File ./tmp/vcrelax.bfgs deleted, as requested
Begin final coordinates
     new unit-cell volume =    198.31349 a.u.^3 (    29.38703 Ang^3 )
     density =      3.25022 g/cm^3

CELL_PARAMETERS (alat=  9.38000000)
  -0.493444051  -0.000000000   0.493444051
   0.000000000   0.493444051   0.493444051
  -0.493444051   0.493444051  -0.000000000

ATOMIC_POSITIONS (alat)
Si               0.0000000000        0.0000000000       -0.0000000000
Si               0.2467220254        0.2467220254        0.2467220254
End final coordinates

     Writing config-only to output data dir ./tmp/vcrelax.save/ :
     XML data file

     Final scf calculation at the relaxed structure.
     The G-vectors are recalculated for the final unit cell
     Results may differ from those at the preceding step.

     Using Slab Decomposition

     bravais-lattice index     =            2
     lattice parameter (alat)  =       9.3800  a.u.
     unit-cell volume          =     198.3135 (a.u.)^3
     number of atoms/cell      =            2
     number of atomic types    =            1
     number of electrons       =         8.00
     number of Kohn-Sham states=            8
     kinetic-energy cutoff     =      60.0000  Ry
     charge density cutoff     =     240.0000  Ry
     scf convergence threshold =      1.0E-08
     mixing beta               =       0.7000
     number of iterations used =            8  plain     mixing
     press convergence thresh. =      5.0E-01
     Exchange-correlation= SLA  PW   NOGX NOGC
                           (   1   4   0   0   0   0   0)

     celldm(1)=   9.380000  celldm(2)=   0.000000  celldm(3)=   0.000000
     celldm(4)=   0.000000  celldm(5)=   0.000000  celldm(6)=   0.000000

     crystal axes: (cart. coord. in units of alat)
               a(1) = (  -0.493444  -0.000000   0.493444 )
               a(2) = (   0.000000   0.493444   0.493444 )
               a(3) = (  -0.493444   0.493444  -0.000000 )

     reciprocal axes: (cart. coord. in units 2 pi/alat)
               b(1) = ( -1.013286 -1.013286  1.013286 )
               b(2) = (  1.013286  1.013286  1.013286 )
               b(3) = ( -1.013286  1.013286 -1.013286 )

     PseudoPot. # 1 for Si read from file:
     ./PSEUDO/Si.LDA.upf
     MD5 check sum: 9e2d726316af3d4752eea8ab0afbb951
     Pseudo is Norm-conserving + core correction, Zval =  4.0
     Generated using ONCVPSP code by D. R. Hamann
     Using radial grid of 1510 points,  6 beta functions with:
                l(1) =   0
                l(2) =   0
                l(3) =   1
                l(4) =   1
                l(5) =   2
                l(6) =   2

     atomic species   valence    mass     pseudopotential
     Si                4.00    28.76000     Si( 1.00)

     48 Sym. Ops., with inversion, found (24 have fractional translation)

   Cartesian axes

     site n.     atom                  positions (alat units)
         1        Si     tau(   1) = (   0.0000000   0.0000000  -0.0000000  )
         2        Si     tau(   2) = (   0.2467220   0.2467220   0.2467220  )

     number of k points=    16 (tetrahedron method)
                       cart. coord. in units 2pi/alat
        k(    1) = (   0.0000000   0.0000000   0.0000000), wk =   0.0092593
        k(    2) = (  -0.1688810   0.1688810  -0.1688810), wk =   0.0740741
        k(    3) = (  -0.3377620   0.3377620  -0.3377620), wk =   0.0740741
        k(    4) = (   0.5066431  -0.5066431   0.5066431), wk =   0.0370370
        k(    5) = (  -0.0000000   0.3377620   0.0000000), wk =   0.0555556
        k(    6) = (  -0.1688810   0.5066431  -0.1688810), wk =   0.2222222
        k(    7) = (   0.6755241  -0.3377620   0.6755241), wk =   0.2222222
        k(    8) = (   0.5066431  -0.1688810   0.5066431), wk =   0.2222222
        k(    9) = (   0.3377620   0.0000000   0.3377620), wk =   0.1111111
        k(   10) = (  -0.0000000   0.6755241   0.0000000), wk =   0.0555556
        k(   11) = (   0.8444051  -0.1688810   0.8444051), wk =   0.2222222
        k(   12) = (   0.6755241   0.0000000   0.6755241), wk =   0.1111111
        k(   13) = (   0.0000000  -1.0132861  -0.0000000), wk =   0.0277778
        k(   14) = (   0.6755241  -0.3377620   1.0132861), wk =   0.2222222
        k(   15) = (   0.5066431  -0.1688810   0.8444051), wk =   0.2222222
        k(   16) = (  -0.3377620  -1.0132861  -0.0000000), wk =   0.1111111

     Initial potential from superposition of free atoms

     starting charge       7.9989, renormalised to       8.0000
     Starting wfcs are    8 randomized atomic wfcs

     Self-consistent Calculation

     iteration #  1     ecut=    60.00 Ry     beta= 0.70
     Davidson diagonalization with overlap
     c_bands:  1 eigenvalues not converged
     c_bands:  1 eigenvalues not converged
     c_bands:  2 eigenvalues not converged
     c_bands:  2 eigenvalues not converged
     ethr =  1.00E-06,  avg # of iterations = 15.9

[...]

     total energy              =     -16.95975060 Ry
     estimated scf accuracy    <       0.00000003 Ry

     iteration #  6     ecut=    60.00 Ry     beta= 0.70
     Davidson diagonalization with overlap
     ethr =  3.79E-10,  avg # of iterations =  1.1

     End of self-consistent calculation

[...]

          k = 0.5066-0.1689 0.8444 (  1556 PWs)   bands (ev):

[...]

          k =-0.3378-1.0133-0.0000 (  1558 PWs)   bands (ev):

     0.9978   0.9978   4.6975   4.6975  12.2858  12.2858  17.5109  17.5109

     the Fermi energy is     9.6086 ev

!    total energy              =     -16.95975060 Ry
     estimated scf accuracy    <          2.7E-09 Ry

     The total energy is the sum of the following terms:
     one-electron contribution =       7.40018429 Ry
     hartree contribution      =       0.84952453 Ry
     xc contribution           =      -6.58816268 Ry
     ewald contribution        =     -18.62129674 Ry

     convergence has been achieved in   6 iterations

     Forces acting on atoms (cartesian axes, Ry/au):

     atom    1 type  1   force =     0.00000000    0.00000000    0.00000000
     atom    2 type  1   force =     0.00000000    0.00000000   -0.00000000

     Total force =     0.000000     Total SCF correction =     0.000000

     Computing stress (Cartesian axis) and pressure

          total   stress  (Ry/bohr**3)                   (kbar)     P=      499.98
   0.00339879  -0.00000000   0.00000000          499.98       -0.00        0.00
  -0.00000000   0.00339879   0.00000000           -0.00      499.98        0.00
   0.00000000   0.00000000   0.00339879            0.00        0.00      499.98

     Writing all to output data dir ./tmp/vcrelax.save/ :
     XML data file, charge density, pseudopotentials, collected wavefunctions

     General routines

   This run was terminated on:  22: 9: 9  15Dec2024

   JOB DONE.