     Program PWSCF v.7.3 starts on 16Dec2024 at 13:25:46

     Waiting for input...
     Reading input from standard input

     Current dimensions of program PWSCF are:
     Max number of different atomic species (ntypx) = 10
     Max number of k-points (npk) =  40000
     Max angular momentum in pseudopotentials (lmaxx) =  4
     Message from routine iosys:
     BEWARE:  force calculation with tetrahedra (not recommanded)
     Message from routine iosys:
     BEWARE: stress calculation with tetrahedra (not recommanded)

     Using Slab Decomposition

     bravais-lattice index     =            1
     lattice parameter (alat)  =       8.4530  a.u.
     unit-cell volume          =     603.9940 (a.u.)^3
     number of atoms/cell      =            7
     number of atomic types    =            2
     number of electrons       =        33.00
     number of Kohn-Sham states=           21
     kinetic-energy cutoff     =      60.0000  Ry
     charge density cutoff     =     240.0000  Ry
     scf convergence threshold =      1.0E-03
     mixing beta               =       0.4000
     number of iterations used =            8  plain     mixing
     Exchange-correlation= PBE
                           (   1   4   3   4   0   0   0)

     celldm(1)=   8.453000  celldm(2)=   0.000000  celldm(3)=   0.000000
     celldm(4)=   0.000000  celldm(5)=   0.000000  celldm(6)=   0.000000

     crystal axes: (cart. coord. in units of alat)
               a(1) = (   1.000000   0.000000   0.000000 )
               a(2) = (   0.000000   1.000000   0.000000 )
               a(3) = (   0.000000   0.000000   1.000000 )

     reciprocal axes: (cart. coord. in units 2 pi/alat)
               b(1) = (  1.000000  0.000000  0.000000 )
               b(2) = (  0.000000  1.000000  0.000000 )
               b(3) = (  0.000000  0.000000  1.000000 )

     PseudoPot. # 1 for Al read from file:
     ./PSEUDO/Al_ONCV_PBE_sr.upf
     MD5 check sum: 71949a6c272e6faf888e318530e21af5
     Pseudo is Norm-conserving + core correction, Zval =  3.0
     Generated using ONCVPSP code by D. R. Hamann
     Using radial grid of 1876 points,  6 beta functions with:
                l(1) =   0
                l(2) =   0
                l(3) =   1
                l(4) =   1
                l(5) =   2
                l(6) =   2

     PseudoPot. # 2 for O  read from file:
     ./PSEUDO/O_ONCV_PBE_sr.upf
     MD5 check sum: b0122293cc47a814ad0627188f9a6d95
     Pseudo is Norm-conserving + core correction, Zval =  6.0
     Generated using ONCVPSP code by D. R. Hamann
     Using radial grid of  936 points,  5 beta functions with:
                l(1) =   0
                l(2) =   0
                l(3) =   1
                l(4) =   1
                l(5) =   2

     atomic species   valence    mass     pseudopotential
     Al                3.00    26.98200     Al( 1.00)
     O                 6.00    15.99900     O ( 1.00)

     48 Sym. Ops., with inversion, found

   Cartesian axes

     site n.     atom                  positions (alat units)
         1        Al     tau(   1) = (   0.0000000   0.5000000   0.5000000  )
         2        Al     tau(   2) = (   0.5000000   0.0000000   0.5000000  )
         3        Al     tau(   3) = (   0.5000000   0.5000000   0.0000000  )
         4        O      tau(   4) = (   0.5000000   0.5000000   0.5000000  )
         5        O      tau(   5) = (   0.5000000   0.0000000   0.0000000  )
         6        O      tau(   6) = (   0.0000000   0.5000000   0.0000000  )
         7        O      tau(   7) = (   0.0000000   0.0000000   0.5000000  )

     number of k points=     4 (tetrahedron method)
                       cart. coord. in units 2pi/alat
        k(    1) = (   0.0000000   0.0000000   0.0000000), wk =   0.2500000
        k(    2) = (   0.0000000   0.0000000  -0.5000000), wk =   0.7500000
        k(    3) = (   0.0000000  -0.5000000  -0.5000000), wk =   0.7500000
        k(    4) = (  -0.5000000  -0.5000000  -0.5000000), wk =   0.2500000

     Check: negative core charge=   -0.000027

     Initial potential from superposition of free atoms

     starting charge      32.9926, renormalised to      33.0000
     Starting wfcs are   28 randomized atomic wfcs

     Self-consistent Calculation

     iteration #  1     ecut=    60.00 Ry     beta= 0.40
     Davidson diagonalization with overlap
     ethr =  1.00E-02,  avg # of iterations =  2.2

     total energy              =    -145.95053260 Ry
     estimated scf accuracy    <       1.66543817 Ry

[...]

     total energy              =    -146.43268308 Ry
     estimated scf accuracy    <       0.00136267 Ry

     iteration #  6     ecut=    60.00 Ry     beta= 0.40
     Davidson diagonalization with overlap
     ethr =  4.13E-06,  avg # of iterations =  5.0

     End of self-consistent calculation

          k = 0.0000 0.0000 0.0000 (  4729 PWs)   bands (ev):

   -14.4113 -11.8479 -11.1785 -11.1785  -1.1876  -1.1876  -1.1876   2.0073
     2.0073   2.0073   2.1433   2.1433   2.1433   3.8922   4.6247   4.6247
     4.6247   6.4471   6.4471  13.2654  13.2660

[...]

          k = 0.0000-0.5000-0.5000 (  4780 PWs)   bands (ev):

[...]

          k =-0.5000-0.5000-0.5000 (  4680 PWs)   bands (ev):

   -14.2118 -11.3917 -11.3917 -11.3917  -2.3028  -2.3028  -2.3028   1.9324
     1.9324   1.9324   2.2711   3.1127   3.1127   3.1127   4.9852   4.9852
     7.3987   9.0874   9.0875   9.0876  11.2637

     the Fermi energy is     7.4657 ev

!    total energy              =    -146.43257859 Ry
     estimated scf accuracy    <       0.00077060 Ry

     The total energy is the sum of the following terms:
     one-electron contribution =     -43.66586047 Ry
     hartree contribution      =      41.33257503 Ry
     xc contribution           =     -39.28745298 Ry
     ewald contribution        =    -104.81184017 Ry

     convergence has been achieved in   6 iterations

     Forces acting on atoms (cartesian axes, Ry/au):

     atom    1 type  1   force =     0.00000000    0.00000000    0.00000000
     atom    2 type  1   force =     0.00000000    0.00000000    0.00000000
     atom    3 type  1   force =     0.00000000    0.00000000    0.00000000
     atom    4 type  2   force =     0.00000000    0.00000000    0.00000000
     atom    5 type  2   force =     0.00000000    0.00000000    0.00000000
     atom    6 type  2   force =     0.00000000    0.00000000    0.00000000
     atom    7 type  2   force =     0.00000000    0.00000000    0.00000000

     Total force =     0.000000     Total SCF correction =     0.000000

     Computing stress (Cartesian axis) and pressure

          total   stress  (Ry/bohr**3)                   (kbar)     P=     -398.17
  -0.00270671   0.00000000   0.00000000         -398.17        0.00        0.00
   0.00000000  -0.00270671   0.00000000            0.00     -398.17        0.00
   0.00000000   0.00000000  -0.00270671            0.00        0.00     -398.17

     Writing all to output data dir ./tmp/AlO.save/ :
     XML data file, charge density, pseudopotentials, collected wavefunctions

     General routines

   This run was terminated on:  13:25:59  16Dec2024

   JOB DONE.