     Program PWSCF v.7.3 starts on 16Dec2024 at 11: 4:22

     Waiting for input...
     Reading input from standard input

     Current dimensions of program PWSCF are:
     Max number of different atomic species (ntypx) = 10
     Max number of k-points (npk) =  40000
     Max angular momentum in pseudopotentials (lmaxx) =  4
     Message from routine iosys:
     BEWARE:  force calculation with tetrahedra (not recommanded)
     Message from routine iosys:
     BEWARE: stress calculation with tetrahedra (not recommanded)
     [opt_tetra]  Optimized tetrahedron method is used.

     Using Slab Decomposition

     bravais-lattice index     =            2
     lattice parameter (alat)  =       6.5760  a.u.
     unit-cell volume          =      71.0928 (a.u.)^3
     number of atoms/cell      =            2
     number of atomic types    =            2
     number of electrons       =         9.00
     number of Kohn-Sham states=            9
     kinetic-energy cutoff     =      80.0000  Ry
     charge density cutoff     =     320.0000  Ry
     scf convergence threshold =      1.0E-06
     mixing beta               =       0.7000
     number of iterations used =            8  plain     mixing
     energy convergence thresh.=      1.0E-04
     force convergence thresh. =      1.0E-03
     press convergence thresh. =      5.0E-01
     Exchange-correlation= PBE
                           (   1   4   3   4   0   0   0)
     nstep                     =           50

     celldm(1)=   6.576000  celldm(2)=   0.000000  celldm(3)=   0.000000
     celldm(4)=   0.000000  celldm(5)=   0.000000  celldm(6)=   0.000000

     crystal axes: (cart. coord. in units of alat)
               a(1) = (  -0.500000   0.000000   0.500000 )
               a(2) = (   0.000000   0.500000   0.500000 )
               a(3) = (  -0.500000   0.500000   0.000000 )

     reciprocal axes: (cart. coord. in units 2 pi/alat)
               b(1) = ( -1.000000 -1.000000  1.000000 )
               b(2) = (  1.000000  1.000000  1.000000 )
               b(3) = ( -1.000000  1.000000 -1.000000 )

     PseudoPot. # 1 for Al read from file:
     ./PSEUDO/Al_ONCV_PBE_sr.upf
     MD5 check sum: 71949a6c272e6faf888e318530e21af5
     Pseudo is Norm-conserving + core correction, Zval =  3.0
     Generated using ONCVPSP code by D. R. Hamann
     Using radial grid of 1876 points,  6 beta functions with:
                l(1) =   0
                l(2) =   0
                l(3) =   1
                l(4) =   1
                l(5) =   2
                l(6) =   2

     PseudoPot. # 2 for O  read from file:
     ./PSEUDO/O_ONCV_PBE_sr.upf
     MD5 check sum: b0122293cc47a814ad0627188f9a6d95
     Pseudo is Norm-conserving + core correction, Zval =  6.0
     Generated using ONCVPSP code by D. R. Hamann
     Using radial grid of  936 points,  5 beta functions with:
                l(1) =   0
                l(2) =   0
                l(3) =   1
                l(4) =   1
                l(5) =   2

     atomic species   valence    mass     pseudopotential
     Al                3.00    26.98200     Al( 1.00)
     O                 6.00    15.99900     O ( 1.00)

     48 Sym. Ops., with inversion, found

   Cartesian axes

     site n.     atom                  positions (alat units)
         1        Al     tau(   1) = (   0.0000000   0.0000000   0.0000000  )
         2        O      tau(   2) = (  -0.5000000   0.5000000   0.5000000  )

     number of k points=    29 (tetrahedron method)
                       cart. coord. in units 2pi/alat
        k(    1) = (   0.0000000   0.0000000   0.0000000), wk =   0.0039062
        k(    2) = (  -0.1250000   0.1250000  -0.1250000), wk =   0.0312500
        k(    3) = (  -0.2500000   0.2500000  -0.2500000), wk =   0.0312500
        k(    4) = (  -0.3750000   0.3750000  -0.3750000), wk =   0.0312500
        k(    5) = (   0.5000000  -0.5000000   0.5000000), wk =   0.0156250
        k(    6) = (   0.0000000   0.2500000   0.0000000), wk =   0.0234375
        k(    7) = (  -0.1250000   0.3750000  -0.1250000), wk =   0.0937500
        k(    8) = (  -0.2500000   0.5000000  -0.2500000), wk =   0.0937500
        k(    9) = (   0.6250000  -0.3750000   0.6250000), wk =   0.0937500
        k(   10) = (   0.5000000  -0.2500000   0.5000000), wk =   0.0937500
        k(   11) = (   0.3750000  -0.1250000   0.3750000), wk =   0.0937500
        k(   12) = (   0.2500000   0.0000000   0.2500000), wk =   0.0468750
        k(   13) = (   0.0000000   0.5000000   0.0000000), wk =   0.0234375
        k(   14) = (  -0.1250000   0.6250000  -0.1250000), wk =   0.0937500
        k(   15) = (   0.7500000  -0.2500000   0.7500000), wk =   0.0937500
        k(   16) = (   0.6250000  -0.1250000   0.6250000), wk =   0.0937500
        k(   17) = (   0.5000000   0.0000000   0.5000000), wk =   0.0468750
        k(   18) = (   0.0000000   0.7500000   0.0000000), wk =   0.0234375
        k(   19) = (   0.8750000  -0.1250000   0.8750000), wk =   0.0937500
        k(   20) = (   0.7500000   0.0000000   0.7500000), wk =   0.0468750
        k(   21) = (   0.0000000  -1.0000000   0.0000000), wk =   0.0117188
        k(   22) = (  -0.2500000   0.5000000   0.0000000), wk =   0.0937500
        k(   23) = (   0.6250000  -0.3750000   0.8750000), wk =   0.1875000
        k(   24) = (   0.5000000  -0.2500000   0.7500000), wk =   0.0937500
        k(   25) = (   0.7500000  -0.2500000   1.0000000), wk =   0.0937500
        k(   26) = (   0.6250000  -0.1250000   0.8750000), wk =   0.1875000
        k(   27) = (   0.5000000   0.0000000   0.7500000), wk =   0.0937500
        k(   28) = (  -0.2500000  -1.0000000   0.0000000), wk =   0.0468750
        k(   29) = (  -0.5000000  -1.0000000   0.0000000), wk =   0.0234375

     Initial potential from superposition of free atoms

     starting charge       8.9975, renormalised to       9.0000
     Starting wfcs are    8 randomized atomic wfcs +    1 random wfcs

     Self-consistent Calculation

     iteration #  1     ecut=    80.00 Ry     beta= 0.70
     Davidson diagonalization with overlap
     ethr =  1.00E-02,  avg # of iterations =  5.7

     total energy              =     -37.09729369 Ry
     estimated scf accuracy    <       0.25077105 Ry

[...]

     End of self-consistent calculation

          k = 0.0000 0.0000 0.0000 (   869 PWs)   bands (ev):

    -7.0915  14.7721  14.7721  14.7721  25.5356  32.8762  32.8762  32.8762
    39.3512

          k =-0.1250 0.1250-0.1250 (   881 PWs)   bands (ev):

[...]

     the Fermi energy is    27.1636 ev

!    total energy              =     -37.19207922 Ry
     estimated scf accuracy    <       0.00000019 Ry

     The total energy is the sum of the following terms:
     one-electron contribution =       4.37208811 Ry
     hartree contribution      =       7.28824242 Ry
     xc contribution           =     -11.51220641 Ry
     ewald contribution        =     -37.34020334 Ry

     convergence has been achieved in   6 iterations

     Forces acting on atoms (cartesian axes, Ry/au):

     atom    1 type  1   force =     0.00000000    0.00000000    0.00000000
     atom    2 type  2   force =     0.00000000    0.00000000    0.00000000

     Total force =     0.000000     Total SCF correction =     0.000000

     Computing stress (Cartesian axis) and pressure

          total   stress  (Ry/bohr**3)                   (kbar)     P=     3196.05
   0.02172631  -0.00000000  -0.00000000         3196.05       -0.00       -0.00
  -0.00000000   0.02172631   0.00000000           -0.00     3196.05        0.00
  -0.00000000   0.00000000   0.02172631           -0.00        0.00     3196.05

     BFGS Geometry Optimization
     Energy error            =      0.0E+00 Ry
     Gradient error          =      0.0E+00 Ry/Bohr
     Cell gradient error     =      3.2E+03 kbar

     number of scf cycles    =   1
     number of bfgs steps    =   0

     enthalpy           new  =     -37.1920792200 Ry

     new trust radius        =       0.1000000000 bohr
     new conv_thr            =       0.0000010000 Ry

     new unit-cell volume =     84.50507 a.u.^3 (    12.52236 Ang^3 )
     density =      5.69954 g/cm^3

CELL_PARAMETERS (alat=  6.57600000)
  -0.529650177   0.000000000   0.529650177
  -0.000000000   0.529650177   0.529650177
  -0.529650177   0.529650177   0.000000000

ATOMIC_POSITIONS (crystal)
Al               0.0000000000        0.0000000000        0.0000000000
O                0.5000000000        0.5000000000        0.5000000000

     Writing config-only to output data dir ./tmp/AlO.save/ :
     XML data file
     NEW-OLD atomic charge density approx. for the potential

     Check: negative core charge=   -0.000001

     negative rho (up, down):  2.929E-05 0.000E+00

[...]

     Energy error            =      2.3E-01 Ry
     Gradient error          =      0.0E+00 Ry/Bohr
     Cell gradient error     =      1.9E+03 kbar

[...]

     enthalpy           old  =     -37.1920792200 Ry
     enthalpy           new  =     -37.4173208194 Ry

     CASE: enthalpy          _new < enthalpy          _old

[...]

     negative rho (up, down):  5.526E-06 0.000E+00

[...]

     Threshold (ethr) on eigenvalues was too large:
     Diagonalizing with lowered threshold

     Davidson diagonalization with overlap
     ethr =  5.46E-08,  avg # of iterations =  1.9

[...]

     number of scf cycles    =   5
     number of bfgs steps    =   4

     enthalpy           old  =     -37.6821302156 Ry
     enthalpy           new  =     -37.6823527189 Ry

     CASE: enthalpy          _new < enthalpy          _old

     new trust radius        =       0.0015298494 bohr
     new conv_thr            =       0.0000000100 Ry

     new unit-cell volume =    135.05821 a.u.^3 (    20.01356 Ang^3 )
     density =      3.56616 g/cm^3

[...]

ATOMIC_POSITIONS (crystal)
Al              -0.0000000000       -0.0000000000        0.0000000000
O                0.5000000000        0.5000000000        0.5000000000

     Writing config-only to output data dir ./tmp/AlO.save/ :
     XML data file
     NEW-OLD atomic charge density approx. for the potential

     Check: negative core charge=   -0.000081

[...]

     Threshold (ethr) on eigenvalues was too large:
     Diagonalizing with lowered threshold

     Davidson diagonalization with overlap
     ethr =  2.20E-09,  avg # of iterations =  3.5

[...]

     Energy error            =      5.0E-06 Ry
     Gradient error          =      3.2E-31 Ry/Bohr
     Cell gradient error     =      4.6E-02 kbar

     bfgs converged in   6 scf cycles and   5 bfgs steps
     (criteria: energy <  1.0E-04 Ry, force <  1.0E-03 Ry/Bohr, cell <  5.0E-01 kbar)

     End of BFGS Geometry Optimization

     Final enthalpy           =     -37.6823577549 Ry

     File ./tmp/AlO.bfgs deleted, as requested
Begin final coordinates
     new unit-cell volume =    135.05821 a.u.^3 (    20.01356 Ang^3 )
     density =      3.56616 g/cm^3

CELL_PARAMETERS (alat=  6.57600000)
  -0.619253580  -0.000000000   0.619253580
   0.000000000   0.619253580   0.619253580
  -0.619253580   0.619253580  -0.000000000

ATOMIC_POSITIONS (crystal)
Al              -0.0000000000       -0.0000000000        0.0000000000
O                0.5000000000        0.5000000000        0.5000000000
End final coordinates

     Writing config-only to output data dir ./tmp/AlO.save/ :
     XML data file

     Final scf calculation at the relaxed structure.
     The G-vectors are recalculated for the final unit cell
     Results may differ from those at the preceding step.

     Using Slab Decomposition

     bravais-lattice index     =            2
     lattice parameter (alat)  =       6.5760  a.u.
     unit-cell volume          =     135.0582 (a.u.)^3
     number of atoms/cell      =            2
     number of atomic types    =            2
     number of electrons       =         9.00
     number of Kohn-Sham states=            9
     kinetic-energy cutoff     =      80.0000  Ry
     charge density cutoff     =     320.0000  Ry
     scf convergence threshold =      1.0E-08
     mixing beta               =       0.7000
     number of iterations used =            8  plain     mixing
     press convergence thresh. =      5.0E-01
     Exchange-correlation= PBE
                           (   1   4   3   4   0   0   0)

     celldm(1)=   6.576000  celldm(2)=   0.000000  celldm(3)=   0.000000
     celldm(4)=   0.000000  celldm(5)=   0.000000  celldm(6)=   0.000000

     crystal axes: (cart. coord. in units of alat)
               a(1) = (  -0.619254  -0.000000   0.619254 )
               a(2) = (   0.000000   0.619254   0.619254 )
               a(3) = (  -0.619254   0.619254  -0.000000 )

     reciprocal axes: (cart. coord. in units 2 pi/alat)
               b(1) = ( -0.807424 -0.807424  0.807424 )
               b(2) = (  0.807424  0.807424  0.807424 )
               b(3) = ( -0.807424  0.807424 -0.807424 )

     PseudoPot. # 1 for Al read from file:
     ./PSEUDO/Al_ONCV_PBE_sr.upf
     MD5 check sum: 71949a6c272e6faf888e318530e21af5
     Pseudo is Norm-conserving + core correction, Zval =  3.0
     Generated using ONCVPSP code by D. R. Hamann
     Using radial grid of 1876 points,  6 beta functions with:
                l(1) =   0
                l(2) =   0
                l(3) =   1
                l(4) =   1
                l(5) =   2
                l(6) =   2

     PseudoPot. # 2 for O  read from file:
     ./PSEUDO/O_ONCV_PBE_sr.upf
     MD5 check sum: b0122293cc47a814ad0627188f9a6d95
     Pseudo is Norm-conserving + core correction, Zval =  6.0
     Generated using ONCVPSP code by D. R. Hamann
     Using radial grid of  936 points,  5 beta functions with:
                l(1) =   0
                l(2) =   0
                l(3) =   1
                l(4) =   1
                l(5) =   2

     atomic species   valence    mass     pseudopotential
     Al                3.00    26.98200     Al( 1.00)
     O                 6.00    15.99900     O ( 1.00)

     48 Sym. Ops., with inversion, found

   Cartesian axes

     site n.     atom                  positions (alat units)
         1        Al     tau(   1) = (   0.0000000   0.0000000  -0.0000000  )
         2        O      tau(   2) = (  -0.6192536   0.6192536   0.6192536  )

     number of k points=    29 (tetrahedron method)
                       cart. coord. in units 2pi/alat
        k(    1) = (   0.0000000   0.0000000   0.0000000), wk =   0.0039062
        k(    2) = (  -0.1009280   0.1009280  -0.1009280), wk =   0.0312500
        k(    3) = (  -0.2018559   0.2018559  -0.2018559), wk =   0.0312500
        k(    4) = (  -0.3027839   0.3027839  -0.3027839), wk =   0.0312500
        k(    5) = (   0.4037118  -0.4037118   0.4037118), wk =   0.0156250
        k(    6) = (  -0.0000000   0.2018559   0.0000000), wk =   0.0234375
        k(    7) = (  -0.1009280   0.3027839  -0.1009280), wk =   0.0937500
        k(    8) = (  -0.2018559   0.4037118  -0.2018559), wk =   0.0937500
        k(    9) = (   0.5046398  -0.3027839   0.5046398), wk =   0.0937500
        k(   10) = (   0.4037118  -0.2018559   0.4037118), wk =   0.0937500
        k(   11) = (   0.3027839  -0.1009280   0.3027839), wk =   0.0937500
        k(   12) = (   0.2018559   0.0000000   0.2018559), wk =   0.0468750
        k(   13) = (  -0.0000000   0.4037118   0.0000000), wk =   0.0234375
        k(   14) = (  -0.1009280   0.5046398  -0.1009280), wk =   0.0937500
        k(   15) = (   0.6055678  -0.2018559   0.6055678), wk =   0.0937500
        k(   16) = (   0.5046398  -0.1009280   0.5046398), wk =   0.0937500
        k(   17) = (   0.4037118   0.0000000   0.4037118), wk =   0.0468750
        k(   18) = (  -0.0000000   0.6055678   0.0000000), wk =   0.0234375
        k(   19) = (   0.7064957  -0.1009280   0.7064957), wk =   0.0937500
        k(   20) = (   0.6055678   0.0000000   0.6055678), wk =   0.0468750
        k(   21) = (   0.0000000  -0.8074237  -0.0000000), wk =   0.0117188
        k(   22) = (  -0.2018559   0.4037118   0.0000000), wk =   0.0937500
        k(   23) = (   0.5046398  -0.3027839   0.7064957), wk =   0.1875000
        k(   24) = (   0.4037118  -0.2018559   0.6055678), wk =   0.0937500
        k(   25) = (   0.6055678  -0.2018559   0.8074237), wk =   0.0937500
        k(   26) = (   0.5046398  -0.1009280   0.7064957), wk =   0.1875000
        k(   27) = (   0.4037118   0.0000000   0.6055678), wk =   0.0937500
        k(   28) = (  -0.2018559  -0.8074237  -0.0000000), wk =   0.0468750
        k(   29) = (  -0.4037118  -0.8074237  -0.0000000), wk =   0.0234375

     Initial potential from superposition of free atoms

     starting charge       8.9975, renormalised to       9.0000
     Starting wfcs are    8 randomized atomic wfcs +    1 random wfcs

     Self-consistent Calculation

     iteration #  1     ecut=    80.00 Ry     beta= 0.70
     Davidson diagonalization with overlap
     c_bands:  1 eigenvalues not converged
     c_bands:  1 eigenvalues not converged
     c_bands:  1 eigenvalues not converged
     c_bands:  1 eigenvalues not converged
     ethr =  1.00E-06,  avg # of iterations = 14.1

[...]

     total energy              =     -37.71376839 Ry
     estimated scf accuracy    <       0.00000378 Ry

     iteration #  7     ecut=    80.00 Ry     beta= 0.70
     Davidson diagonalization with overlap
     ethr =  4.20E-08,  avg # of iterations =  1.1

     End of self-consistent calculation

[...]

          k = 0.4037 0.0000 0.6056 (  1639 PWs)   bands (ev):

[...]

          k =-0.4037-0.8074-0.0000 (  1628 PWs)   bands (ev):

    -9.3085   2.7476   2.7476   3.8256  13.6171  16.2871  16.2871  17.6544
    24.7691

     the Fermi energy is    12.5919 ev

!    total energy              =     -37.71376912 Ry
     estimated scf accuracy    <          8.3E-09 Ry

     The total energy is the sum of the following terms:
     one-electron contribution =      -6.65392175 Ry
     hartree contribution      =       9.69634555 Ry
     xc contribution           =     -10.60682880 Ry
     ewald contribution        =     -30.14936411 Ry

     convergence has been achieved in   7 iterations

     Forces acting on atoms (cartesian axes, Ry/au):

     atom    1 type  1   force =     0.00000000    0.00000000    0.00000000
     atom    2 type  2   force =     0.00000000    0.00000000    0.00000000

     Total force =     0.000000     Total SCF correction =     0.000000

     Computing stress (Cartesian axis) and pressure

          total   stress  (Ry/bohr**3)                   (kbar)     P=      185.22
   0.00125912   0.00000000  -0.00000000          185.22        0.00       -0.00
   0.00000000   0.00125912   0.00000000            0.00      185.22        0.00
  -0.00000000   0.00000000   0.00125912           -0.00        0.00      185.22

     Writing all to output data dir ./tmp/AlO.save/ :
     XML data file, charge density, pseudopotentials, collected wavefunctions

     General routines

   This run was terminated on:  11: 5: 3  16Dec2024

   JOB DONE.