     Program PWSCF v.7.3 starts on 16Dec2024 at 11: 6:55

     Waiting for input...
     Reading input from standard input

     Current dimensions of program PWSCF are:
     Max number of different atomic species (ntypx) = 10
     Max number of k-points (npk) =  40000
     Max angular momentum in pseudopotentials (lmaxx) =  4
     Message from routine iosys:
     BEWARE:  force calculation with tetrahedra (not recommanded)
     Message from routine iosys:
     BEWARE: stress calculation with tetrahedra (not recommanded)
     [opt_tetra]  Optimized tetrahedron method is used.

     Using Slab Decomposition

     bravais-lattice index     =            2
     lattice parameter (alat)  =       8.1444  a.u.
     unit-cell volume          =     135.0571 (a.u.)^3
     number of atoms/cell      =            2
     number of atomic types    =            2
     number of electrons       =         9.00
     number of Kohn-Sham states=            9
     kinetic-energy cutoff     =      80.0000  Ry
     charge density cutoff     =     320.0000  Ry
     scf convergence threshold =      1.0E-06
     mixing beta               =       0.7000
     number of iterations used =            8  plain     mixing
     energy convergence thresh.=      1.0E-04
     force convergence thresh. =      1.0E-03
     press convergence thresh. =      5.0E-01
     Exchange-correlation= PBE
                           (   1   4   3   4   0   0   0)
     nstep                     =           50

     celldm(1)=   8.144400  celldm(2)=   0.000000  celldm(3)=   0.000000
     celldm(4)=   0.000000  celldm(5)=   0.000000  celldm(6)=   0.000000

     crystal axes: (cart. coord. in units of alat)
               a(1) = (  -0.500000   0.000000   0.500000 )
               a(2) = (   0.000000   0.500000   0.500000 )
               a(3) = (  -0.500000   0.500000   0.000000 )

     reciprocal axes: (cart. coord. in units 2 pi/alat)
               b(1) = ( -1.000000 -1.000000  1.000000 )
               b(2) = (  1.000000  1.000000  1.000000 )
               b(3) = ( -1.000000  1.000000 -1.000000 )

     PseudoPot. # 1 for Al read from file:
     ./PSEUDO/Al_ONCV_PBE_sr.upf
     MD5 check sum: 71949a6c272e6faf888e318530e21af5
     Pseudo is Norm-conserving + core correction, Zval =  3.0
     Generated using ONCVPSP code by D. R. Hamann
     Using radial grid of 1876 points,  6 beta functions with:
                l(1) =   0
                l(2) =   0
                l(3) =   1
                l(4) =   1
                l(5) =   2
                l(6) =   2

     PseudoPot. # 2 for O  read from file:
     ./PSEUDO/O_ONCV_PBE_sr.upf
     MD5 check sum: b0122293cc47a814ad0627188f9a6d95
     Pseudo is Norm-conserving + core correction, Zval =  6.0
     Generated using ONCVPSP code by D. R. Hamann
     Using radial grid of  936 points,  5 beta functions with:
                l(1) =   0
                l(2) =   0
                l(3) =   1
                l(4) =   1
                l(5) =   2

     atomic species   valence    mass     pseudopotential
     Al                3.00    26.98200     Al( 1.00)
     O                 6.00    15.99900     O ( 1.00)

     48 Sym. Ops., with inversion, found

   Cartesian axes

     site n.     atom                  positions (alat units)
         1        Al     tau(   1) = (   0.0000000   0.0000000   0.0000000  )
         2        O      tau(   2) = (  -0.5000000   0.5000000   0.5000000  )

     number of k points=    29 (tetrahedron method)
                       cart. coord. in units 2pi/alat
        k(    1) = (   0.0000000   0.0000000   0.0000000), wk =   0.0039062
        k(    2) = (  -0.1250000   0.1250000  -0.1250000), wk =   0.0312500
        k(    3) = (  -0.2500000   0.2500000  -0.2500000), wk =   0.0312500
        k(    4) = (  -0.3750000   0.3750000  -0.3750000), wk =   0.0312500
        k(    5) = (   0.5000000  -0.5000000   0.5000000), wk =   0.0156250
        k(    6) = (   0.0000000   0.2500000   0.0000000), wk =   0.0234375
        k(    7) = (  -0.1250000   0.3750000  -0.1250000), wk =   0.0937500
        k(    8) = (  -0.2500000   0.5000000  -0.2500000), wk =   0.0937500
        k(    9) = (   0.6250000  -0.3750000   0.6250000), wk =   0.0937500
        k(   10) = (   0.5000000  -0.2500000   0.5000000), wk =   0.0937500
        k(   11) = (   0.3750000  -0.1250000   0.3750000), wk =   0.0937500
        k(   12) = (   0.2500000   0.0000000   0.2500000), wk =   0.0468750
        k(   13) = (   0.0000000   0.5000000   0.0000000), wk =   0.0234375
        k(   14) = (  -0.1250000   0.6250000  -0.1250000), wk =   0.0937500
        k(   15) = (   0.7500000  -0.2500000   0.7500000), wk =   0.0937500
        k(   16) = (   0.6250000  -0.1250000   0.6250000), wk =   0.0937500
        k(   17) = (   0.5000000   0.0000000   0.5000000), wk =   0.0468750
        k(   18) = (   0.0000000   0.7500000   0.0000000), wk =   0.0234375
        k(   19) = (   0.8750000  -0.1250000   0.8750000), wk =   0.0937500
        k(   20) = (   0.7500000   0.0000000   0.7500000), wk =   0.0468750
        k(   21) = (   0.0000000  -1.0000000   0.0000000), wk =   0.0117188
        k(   22) = (  -0.2500000   0.5000000   0.0000000), wk =   0.0937500
        k(   23) = (   0.6250000  -0.3750000   0.8750000), wk =   0.1875000
        k(   24) = (   0.5000000  -0.2500000   0.7500000), wk =   0.0937500
        k(   25) = (   0.7500000  -0.2500000   1.0000000), wk =   0.0937500
        k(   26) = (   0.6250000  -0.1250000   0.8750000), wk =   0.1875000
        k(   27) = (   0.5000000   0.0000000   0.7500000), wk =   0.0937500
        k(   28) = (  -0.2500000  -1.0000000   0.0000000), wk =   0.0468750
        k(   29) = (  -0.5000000  -1.0000000   0.0000000), wk =   0.0234375

     Initial potential from superposition of free atoms

     starting charge       8.9975, renormalised to       9.0000
     Starting wfcs are    8 randomized atomic wfcs +    1 random wfcs

     Self-consistent Calculation

     iteration #  1     ecut=    80.00 Ry     beta= 0.70
     Davidson diagonalization with overlap
     ethr =  1.00E-02,  avg # of iterations =  4.9

     total energy              =     -37.56223722 Ry
     estimated scf accuracy    <       0.31227404 Ry

[...]

     End of self-consistent calculation

          k = 0.0000 0.0000 0.0000 (  1639 PWs)   bands (ev):

   -11.0227   6.0580   6.0580   6.0580   7.8389  20.3680  24.1144  24.1144
    24.1144

          k =-0.1250 0.1250-0.1250 (  1624 PWs)   bands (ev):

[...]

     the Fermi energy is    12.5921 ev

!    total energy              =     -37.71376766 Ry
     estimated scf accuracy    <          6.4E-09 Ry

     The total energy is the sum of the following terms:
     one-electron contribution =      -6.65379224 Ry
     hartree contribution      =       9.69631389 Ry
     xc contribution           =     -10.60683973 Ry
     ewald contribution        =     -30.14944958 Ry

     convergence has been achieved in   7 iterations

     Forces acting on atoms (cartesian axes, Ry/au):

     atom    1 type  1   force =     0.00000000   -0.00000000    0.00000000
     atom    2 type  2   force =     0.00000000    0.00000000   -0.00000000

     Total force =     0.000000     Total SCF correction =     0.000000

     Computing stress (Cartesian axis) and pressure

          total   stress  (Ry/bohr**3)                   (kbar)     P=      185.21
   0.00125906  -0.00000000  -0.00000000          185.21       -0.00       -0.00
  -0.00000000   0.00125906   0.00000000           -0.00      185.21        0.00
  -0.00000000   0.00000000   0.00125906           -0.00        0.00      185.21

     BFGS Geometry Optimization
     Energy error            =      0.0E+00 Ry
     Gradient error          =      2.5E-32 Ry/Bohr
     Cell gradient error     =      1.9E+02 kbar

     number of scf cycles    =   1
     number of bfgs steps    =   0

     enthalpy           new  =     -37.7137676605 Ry

     new trust radius        =       0.0731600400 bohr
     new conv_thr            =       0.0000010000 Ry

     new unit-cell volume =    148.21604 a.u.^3 (    21.96335 Ang^3 )
     density =      3.24958 g/cm^3

CELL_PARAMETERS (alat=  8.14440000)
  -0.515738209   0.000000000   0.515738209
  -0.000000000   0.515738209   0.515738209
  -0.515738209   0.515738209   0.000000000

ATOMIC_POSITIONS (crystal)
Al               0.0000000000        0.0000000000       -0.0000000000
O                0.5000000000        0.5000000000        0.5000000000

     Writing config-only to output data dir ./tmp/AlO.save/ :
     XML data file
     NEW-OLD atomic charge density approx. for the potential

[...]

     Energy error            =      8.8E-03 Ry
     Gradient error          =      1.9E-31 Ry/Bohr
     Cell gradient error     =      2.2E+01 kbar

[...]

     enthalpy           old  =     -37.7137676605 Ry
     enthalpy           new  =     -37.7225337985 Ry

     CASE: enthalpy          _new < enthalpy          _old

[...]

     Check: negative core charge=   -0.000001

[...]

     Threshold (ethr) on eigenvalues was too large:
     Diagonalizing with lowered threshold

     Davidson diagonalization with overlap
     ethr =  2.63E-08,  avg # of iterations =  2.5

[...]

     number of scf cycles    =   3
     number of bfgs steps    =   2

     enthalpy           old  =     -37.7225337985 Ry
     enthalpy           new  =     -37.7227019481 Ry

     CASE: enthalpy          _new < enthalpy          _old

     new trust radius        =       0.0015602959 bohr
     new conv_thr            =       0.0000000100 Ry

     new unit-cell volume =    150.51078 a.u.^3 (    22.30340 Ang^3 )
     density =      3.20003 g/cm^3

[...]

ATOMIC_POSITIONS (crystal)
Al               0.0000000000       -0.0000000000        0.0000000000
O                0.5000000000        0.5000000000        0.5000000000

     Writing config-only to output data dir ./tmp/AlO.save/ :
     XML data file
     NEW-OLD atomic charge density approx. for the potential

     Check: negative core charge=   -0.000001

[...]

     Threshold (ethr) on eigenvalues was too large:
     Diagonalizing with lowered threshold

     Davidson diagonalization with overlap
     ethr =  7.08E-10,  avg # of iterations =  3.8

[...]

     Energy error            =      2.7E-06 Ry
     Gradient error          =      4.4E-31 Ry/Bohr
     Cell gradient error     =      1.3E-01 kbar

     bfgs converged in   4 scf cycles and   3 bfgs steps
     (criteria: energy <  1.0E-04 Ry, force <  1.0E-03 Ry/Bohr, cell <  5.0E-01 kbar)

     End of BFGS Geometry Optimization

     Final enthalpy           =     -37.7227046540 Ry

     File ./tmp/AlO.bfgs deleted, as requested
Begin final coordinates
     new unit-cell volume =    150.51078 a.u.^3 (    22.30340 Ang^3 )
     density =      3.20003 g/cm^3

CELL_PARAMETERS (alat=  8.14440000)
  -0.518386214   0.000000000   0.518386214
  -0.000000000   0.518386214   0.518386214
  -0.518386214   0.518386214   0.000000000

ATOMIC_POSITIONS (crystal)
Al               0.0000000000       -0.0000000000        0.0000000000
O                0.5000000000        0.5000000000        0.5000000000
End final coordinates

     Writing config-only to output data dir ./tmp/AlO.save/ :
     XML data file

     Final scf calculation at the relaxed structure.
     The G-vectors are recalculated for the final unit cell
     Results may differ from those at the preceding step.

     Using Slab Decomposition

     bravais-lattice index     =            2
     lattice parameter (alat)  =       8.1444  a.u.
     unit-cell volume          =     150.5108 (a.u.)^3
     number of atoms/cell      =            2
     number of atomic types    =            2
     number of electrons       =         9.00
     number of Kohn-Sham states=            9
     kinetic-energy cutoff     =      80.0000  Ry
     charge density cutoff     =     320.0000  Ry
     scf convergence threshold =      1.0E-08
     mixing beta               =       0.7000
     number of iterations used =            8  plain     mixing
     press convergence thresh. =      5.0E-01
     Exchange-correlation= PBE
                           (   1   4   3   4   0   0   0)

     celldm(1)=   8.144400  celldm(2)=   0.000000  celldm(3)=   0.000000
     celldm(4)=   0.000000  celldm(5)=   0.000000  celldm(6)=   0.000000

     crystal axes: (cart. coord. in units of alat)
               a(1) = (  -0.518386   0.000000   0.518386 )
               a(2) = (  -0.000000   0.518386   0.518386 )
               a(3) = (  -0.518386   0.518386   0.000000 )

     reciprocal axes: (cart. coord. in units 2 pi/alat)
               b(1) = ( -0.964532 -0.964532  0.964532 )
               b(2) = (  0.964532  0.964532  0.964532 )
               b(3) = ( -0.964532  0.964532 -0.964532 )

     PseudoPot. # 1 for Al read from file:
     ./PSEUDO/Al_ONCV_PBE_sr.upf
     MD5 check sum: 71949a6c272e6faf888e318530e21af5
     Pseudo is Norm-conserving + core correction, Zval =  3.0
     Generated using ONCVPSP code by D. R. Hamann
     Using radial grid of 1876 points,  6 beta functions with:
                l(1) =   0
                l(2) =   0
                l(3) =   1
                l(4) =   1
                l(5) =   2
                l(6) =   2

     PseudoPot. # 2 for O  read from file:
     ./PSEUDO/O_ONCV_PBE_sr.upf
     MD5 check sum: b0122293cc47a814ad0627188f9a6d95
     Pseudo is Norm-conserving + core correction, Zval =  6.0
     Generated using ONCVPSP code by D. R. Hamann
     Using radial grid of  936 points,  5 beta functions with:
                l(1) =   0
                l(2) =   0
                l(3) =   1
                l(4) =   1
                l(5) =   2

     atomic species   valence    mass     pseudopotential
     Al                3.00    26.98200     Al( 1.00)
     O                 6.00    15.99900     O ( 1.00)

     48 Sym. Ops., with inversion, found

   Cartesian axes

     site n.     atom                  positions (alat units)
         1        Al     tau(   1) = (  -0.0000000  -0.0000000  -0.0000000  )
         2        O      tau(   2) = (  -0.5183862   0.5183862   0.5183862  )

     number of k points=    29 (tetrahedron method)
                       cart. coord. in units 2pi/alat
        k(    1) = (   0.0000000   0.0000000   0.0000000), wk =   0.0039062
        k(    2) = (  -0.1205665   0.1205665  -0.1205665), wk =   0.0312500
        k(    3) = (  -0.2411330   0.2411330  -0.2411330), wk =   0.0312500
        k(    4) = (  -0.3616994   0.3616994  -0.3616994), wk =   0.0312500
        k(    5) = (   0.4822659  -0.4822659   0.4822659), wk =   0.0156250
        k(    6) = (  -0.0000000   0.2411330   0.0000000), wk =   0.0234375
        k(    7) = (  -0.1205665   0.3616994  -0.1205665), wk =   0.0937500
        k(    8) = (  -0.2411330   0.4822659  -0.2411330), wk =   0.0937500
        k(    9) = (   0.6028324  -0.3616994   0.6028324), wk =   0.0937500
        k(   10) = (   0.4822659  -0.2411330   0.4822659), wk =   0.0937500
        k(   11) = (   0.3616994  -0.1205665   0.3616994), wk =   0.0937500
        k(   12) = (   0.2411330   0.0000000   0.2411330), wk =   0.0468750
        k(   13) = (  -0.0000000   0.4822659   0.0000000), wk =   0.0234375
        k(   14) = (  -0.1205665   0.6028324  -0.1205665), wk =   0.0937500
        k(   15) = (   0.7233989  -0.2411330   0.7233989), wk =   0.0937500
        k(   16) = (   0.6028324  -0.1205665   0.6028324), wk =   0.0937500
        k(   17) = (   0.4822659   0.0000000   0.4822659), wk =   0.0468750
        k(   18) = (   0.0000000   0.7233989   0.0000000), wk =   0.0234375
        k(   19) = (   0.8439653  -0.1205665   0.8439653), wk =   0.0937500
        k(   20) = (   0.7233989   0.0000000   0.7233989), wk =   0.0468750
        k(   21) = (   0.0000000  -0.9645318  -0.0000000), wk =   0.0117188
        k(   22) = (  -0.2411330   0.4822659   0.0000000), wk =   0.0937500
        k(   23) = (   0.6028324  -0.3616994   0.8439653), wk =   0.1875000
        k(   24) = (   0.4822659  -0.2411330   0.7233989), wk =   0.0937500
        k(   25) = (   0.7233989  -0.2411330   0.9645318), wk =   0.0937500
        k(   26) = (   0.6028324  -0.1205665   0.8439653), wk =   0.1875000
        k(   27) = (   0.4822659   0.0000000   0.7233989), wk =   0.0937500
        k(   28) = (  -0.2411330  -0.9645318  -0.0000000), wk =   0.0468750
        k(   29) = (  -0.4822659  -0.9645318  -0.0000000), wk =   0.0234375

     Initial potential from superposition of free atoms

     starting charge       8.9975, renormalised to       9.0000
     Starting wfcs are    8 randomized atomic wfcs +    1 random wfcs

     Self-consistent Calculation

     iteration #  1     ecut=    80.00 Ry     beta= 0.70
     Davidson diagonalization with overlap
     c_bands:  1 eigenvalues not converged
     c_bands:  1 eigenvalues not converged
     c_bands:  1 eigenvalues not converged
     c_bands:  1 eigenvalues not converged
     c_bands:  1 eigenvalues not converged
     c_bands:  1 eigenvalues not converged
     ethr =  1.00E-06,  avg # of iterations = 14.4

[...]

     total energy              =     -37.72300852 Ry
     estimated scf accuracy    <       0.00000004 Ry

     iteration #  9     ecut=    80.00 Ry     beta= 0.70
     Davidson diagonalization with overlap
     ethr =  1.90E-10,  avg # of iterations =  1.7

     End of self-consistent calculation

[...]

          k = 0.4823 0.0000 0.7234 (  1823 PWs)   bands (ev):

[...]

          k =-0.4823-0.9645-0.0000 (  1800 PWs)   bands (ev):

   -10.1875   2.0593   2.0593   2.9315  11.4680  14.4892  14.4892  15.4455
    22.4449

     the Fermi energy is    10.6421 ev

!    total energy              =     -37.72300852 Ry
     estimated scf accuracy    <          3.5E-09 Ry

     The total energy is the sum of the following terms:
     one-electron contribution =      -8.26235148 Ry
     hartree contribution      =      10.10664540 Ry
     xc contribution           =     -10.48719887 Ry
     ewald contribution        =     -29.08010357 Ry

     convergence has been achieved in   9 iterations

     Forces acting on atoms (cartesian axes, Ry/au):

     atom    1 type  1   force =     0.00000000    0.00000000    0.00000000
     atom    2 type  2   force =     0.00000000    0.00000000   -0.00000000

     Total force =     0.000000     Total SCF correction =     0.000000

     Computing stress (Cartesian axis) and pressure

          total   stress  (Ry/bohr**3)                   (kbar)     P=        3.74
   0.00002545   0.00000000  -0.00000000            3.74        0.00       -0.00
   0.00000000   0.00002545   0.00000000            0.00        3.74        0.00
  -0.00000000   0.00000000   0.00002545           -0.00        0.00        3.74

     Writing all to output data dir ./tmp/AlO.save/ :
     XML data file, charge density, pseudopotentials, collected wavefunctions

     General routines

   This run was terminated on:  11: 7:36  16Dec2024

   JOB DONE.