     Program PWSCF v.7.3 starts on 18Nov2024 at 10: 2: 9

     Waiting for input...
     Reading input from standard input

     Current dimensions of program PWSCF are:
     Max number of different atomic species (ntypx) = 10
     Max number of k-points (npk) =  40000
     Max angular momentum in pseudopotentials (lmaxx) =  4

     Using Slab Decomposition

     bravais-lattice index     =            2
     lattice parameter (alat)  =       8.4300  a.u.
     unit-cell volume          =     149.7693 (a.u.)^3
     number of atoms/cell      =            1
     number of atomic types    =            1
     number of electrons       =         8.00
     number of Kohn-Sham states=            4
     kinetic-energy cutoff     =      80.0000  Ry
     charge density cutoff     =     320.0000  Ry
     scf convergence threshold =      1.0E-06
     mixing beta               =       0.7000
     number of iterations used =            8  plain     mixing
     Exchange-correlation= SLA  PW   NOGX NOGC
                           (   1   4   0   0   0   0   0)

     celldm(1)=   8.430000  celldm(2)=   0.000000  celldm(3)=   0.000000
     celldm(4)=   0.000000  celldm(5)=   0.000000  celldm(6)=   0.000000

     crystal axes: (cart. coord. in units of alat)
               a(1) = (  -0.500000   0.000000   0.500000 )
               a(2) = (   0.000000   0.500000   0.500000 )
               a(3) = (  -0.500000   0.500000   0.000000 )

     reciprocal axes: (cart. coord. in units 2 pi/alat)
               b(1) = ( -1.000000 -1.000000  1.000000 )
               b(2) = (  1.000000  1.000000  1.000000 )
               b(3) = ( -1.000000  1.000000 -1.000000 )

     PseudoPot. # 1 for Ne read from file:
     ./PSEUDO/Ne.LDA.upf
     MD5 check sum: 4fe887f722f2cdc4cea4a66ab59ea4d3
     Pseudo is Norm-conserving, Zval =  8.0
     Generated using ONCVPSP code by D. R. Hamann
     Using radial grid of  750 points,  4 beta functions with:
                l(1) =   0
                l(2) =   0
                l(3) =   1
                l(4) =   1

     atomic species   valence    mass     pseudopotential
     Ne                8.00    20.18000     Ne( 1.00)

     48 Sym. Ops., with inversion, found

   Cartesian axes

     site n.     atom                  positions (alat units)
         1        Ne     tau(   1) = (   0.0000000   0.0000000   0.0000000  )

     number of k points=     8
                       cart. coord. in units 2pi/alat
        k(    1) = (   0.0000000   0.0000000   0.0000000), wk =   0.0312500
        k(    2) = (  -0.2500000   0.2500000  -0.2500000), wk =   0.2500000
        k(    3) = (   0.5000000  -0.5000000   0.5000000), wk =   0.1250000
        k(    4) = (   0.0000000   0.5000000   0.0000000), wk =   0.1875000
        k(    5) = (   0.7500000  -0.2500000   0.7500000), wk =   0.7500000
        k(    6) = (   0.5000000   0.0000000   0.5000000), wk =   0.3750000
        k(    7) = (   0.0000000  -1.0000000   0.0000000), wk =   0.0937500
        k(    8) = (  -0.5000000  -1.0000000   0.0000000), wk =   0.1875000

     Initial potential from superposition of free atoms

     starting charge       8.0000, renormalised to       8.0000
     Starting wfcs are    4 randomized atomic wfcs

     Self-consistent Calculation

     iteration #  1     ecut=    80.00 Ry     beta= 0.70
     Davidson diagonalization with overlap
     ethr =  1.00E-02,  avg # of iterations =  1.0

     Threshold (ethr) on eigenvalues was too large:
     Diagonalizing with lowered threshold

     Davidson diagonalization with overlap
     ethr =  3.68E-07,  avg # of iterations =  3.0

     total energy              =     -66.77614443 Ry
     estimated scf accuracy    <       0.00004092 Ry

[...]

     total energy              =     -66.77615546 Ry
     estimated scf accuracy    <       0.00000688 Ry

     iteration #  3     ecut=    80.00 Ry     beta= 0.70
     Davidson diagonalization with overlap
     ethr =  8.59E-08,  avg # of iterations =  2.0

     End of self-consistent calculation

          k = 0.0000 0.0000 0.0000 (  1837 PWs)   bands (ev):

   -32.3788  -9.4350  -9.4350  -9.4350

          k =-0.2500 0.2500-0.2500 (  1820 PWs)   bands (ev):

[...]

          k = 0.0000-1.0000 0.0000 (  1772 PWs)   bands (ev):

[...]

          k =-0.5000-1.0000 0.0000 (  1800 PWs)   bands (ev):

   -32.2639  -9.8636  -9.8636  -9.6729

     highest occupied level (ev):    -9.4350

!    total energy              =     -66.77615672 Ry
     estimated scf accuracy    <       0.00000012 Ry

     The total energy is the sum of the following terms:
     one-electron contribution =     -47.28144202 Ry
     hartree contribution      =      26.41484359 Ry
     xc contribution           =     -11.10158999 Ry
     ewald contribution        =     -34.80796830 Ry

     convergence has been achieved in   3 iterations

     Forces acting on atoms (cartesian axes, Ry/au):

     atom    1 type  1   force =     0.00000000    0.00000000    0.00000000

     Total force =     0.000000     Total SCF correction =     0.000000

     Computing stress (Cartesian axis) and pressure

          total   stress  (Ry/bohr**3)                   (kbar)     P=       -7.38
  -0.00005020   0.00000000   0.00000000           -7.38        0.00        0.00
   0.00000000  -0.00005020  -0.00000000            0.00       -7.38       -0.00
   0.00000000  -0.00000000  -0.00005020            0.00       -0.00       -7.38

     Writing all to output data dir ./tmp/neon.save/ :
     XML data file, charge density, pseudopotentials, collected wavefunctions

     General routines

   This run was terminated on:  10: 2:10  18Nov2024

   JOB DONE.