     Program PWSCF v.7.3 starts on  2Dec2024 at 13:46:16

     Waiting for input...
     Reading input from standard input
     Message from routine read_cards :
     DEPRECATED: no units specified in ATOMIC_POSITIONS card
     Message from routine read_cards :
     ATOMIC_POSITIONS: units set to alat

     Current dimensions of program PWSCF are:
     Max number of different atomic species (ntypx) = 10
     Max number of k-points (npk) =  40000
     Max angular momentum in pseudopotentials (lmaxx) =  4
     Message from routine iosys:
     BEWARE:  force calculation with tetrahedra (not recommanded)
     Message from routine iosys:
     BEWARE: stress calculation with tetrahedra (not recommanded)
     [opt_tetra]  Optimized tetrahedron method is used.

     Using Slab Decomposition

     bravais-lattice index     =            2
     lattice parameter (alat)  =       9.4600  a.u.
     unit-cell volume          =     211.6476 (a.u.)^3
     number of atoms/cell      =            2
     number of atomic types    =            1
     number of electrons       =         8.00
     number of Kohn-Sham states=            8
     kinetic-energy cutoff     =      40.0000  Ry
     charge density cutoff     =     160.0000  Ry
     scf convergence threshold =      1.0E-06
     mixing beta               =       0.7000
     number of iterations used =            8  plain     mixing
     energy convergence thresh.=      1.0E-04
     force convergence thresh. =      1.0E-03
     press convergence thresh. =      5.0E-01
     Exchange-correlation= SLA  PW   NOGX NOGC
                           (   1   4   0   0   0   0   0)
     nstep                     =           50

     celldm(1)=   9.460000  celldm(2)=   0.000000  celldm(3)=   0.000000
     celldm(4)=   0.000000  celldm(5)=   0.000000  celldm(6)=   0.000000

     crystal axes: (cart. coord. in units of alat)
               a(1) = (  -0.500000   0.000000   0.500000 )
               a(2) = (   0.000000   0.500000   0.500000 )
               a(3) = (  -0.500000   0.500000   0.000000 )

     reciprocal axes: (cart. coord. in units 2 pi/alat)
               b(1) = ( -1.000000 -1.000000  1.000000 )
               b(2) = (  1.000000  1.000000  1.000000 )
               b(3) = ( -1.000000  1.000000 -1.000000 )

     PseudoPot. # 1 for Si read from file:
     ./PSEUDO/Si.LDA.upf
     MD5 check sum: 9e2d726316af3d4752eea8ab0afbb951
     Pseudo is Norm-conserving + core correction, Zval =  4.0
     Generated using ONCVPSP code by D. R. Hamann
     Using radial grid of 1510 points,  6 beta functions with:
                l(1) =   0
                l(2) =   0
                l(3) =   1
                l(4) =   1
                l(5) =   2
                l(6) =   2

     atomic species   valence    mass     pseudopotential
     Si                4.00    28.76000     Si( 1.00)

     48 Sym. Ops., with inversion, found (24 have fractional translation)

   Cartesian axes

     site n.     atom                  positions (alat units)
         1        Si     tau(   1) = (   0.0000000   0.0000000   0.0000000  )
         2        Si     tau(   2) = (   0.2500000   0.2500000   0.2500000  )

     number of k points=     8 (tetrahedron method)
                       cart. coord. in units 2pi/alat
        k(    1) = (   0.0000000   0.0000000   0.0000000), wk =   0.0312500
        k(    2) = (  -0.2500000   0.2500000  -0.2500000), wk =   0.2500000
        k(    3) = (   0.5000000  -0.5000000   0.5000000), wk =   0.1250000
        k(    4) = (   0.0000000   0.5000000   0.0000000), wk =   0.1875000
        k(    5) = (   0.7500000  -0.2500000   0.7500000), wk =   0.7500000
        k(    6) = (   0.5000000   0.0000000   0.5000000), wk =   0.3750000
        k(    7) = (   0.0000000  -1.0000000   0.0000000), wk =   0.0937500
        k(    8) = (  -0.5000000  -1.0000000   0.0000000), wk =   0.1875000

     Initial potential from superposition of free atoms

     starting charge       7.9989, renormalised to       8.0000
     Starting wfcs are    8 randomized atomic wfcs

     Self-consistent Calculation

     iteration #  1     ecut=    40.00 Ry     beta= 0.70
     Davidson diagonalization with overlap
     ethr =  1.00E-02,  avg # of iterations =  4.4

     total energy              =     -16.97502591 Ry
     estimated scf accuracy    <       0.08858361 Ry

[...]

     End of self-consistent calculation

          k = 0.0000 0.0000 0.0000 (   893 PWs)   bands (ev):

    -4.9074   8.9157   8.9157   8.9157  11.5003  11.5003  11.5003  15.0560

          k =-0.2500 0.2500-0.2500 (   902 PWs)   bands (ev):

[...]

     the Fermi energy is     8.9275 ev

!    total energy              =     -16.98158636 Ry
     estimated scf accuracy    <       0.00000024 Ry

     The total energy is the sum of the following terms:
     one-electron contribution =       6.82902111 Ry
     hartree contribution      =       0.92088561 Ry
     xc contribution           =      -6.50976604 Ry
     ewald contribution        =     -18.22172703 Ry

     convergence has been achieved in   4 iterations

     Forces acting on atoms (cartesian axes, Ry/au):

     atom    1 type  1   force =     0.00000000    0.00000000    0.00000000
     atom    2 type  1   force =     0.00000000    0.00000000    0.00000000

     Total force =     0.000000     Total SCF correction =     0.000000

     Computing stress (Cartesian axis) and pressure

          total   stress  (Ry/bohr**3)                   (kbar)     P=      354.42
   0.00240928   0.00000000   0.00000000          354.42        0.00        0.00
   0.00000000   0.00240928  -0.00000000            0.00      354.42       -0.00
   0.00000000  -0.00000000   0.00240928            0.00       -0.00      354.42

     BFGS Geometry Optimization
     Energy error            =      0.0E+00 Ry
     Gradient error          =      0.0E+00 Ry/Bohr
     Cell gradient error     =      3.5E+02 kbar

     number of scf cycles    =   1
     number of bfgs steps    =   0

     enthalpy           new  =     -16.9815863563 Ry

     new trust radius        =       0.1000000000 bohr
     new conv_thr            =       0.0000010000 Ry

     new unit-cell volume =    234.22840 a.u.^3 (    34.70907 Ang^3 )
     density =      2.75185 g/cm^3

CELL_PARAMETERS (alat=  9.46000000)
  -0.517184358  -0.000000000   0.517184358
   0.000000000   0.517184358   0.517184358
  -0.517184358   0.517184358  -0.000000000

ATOMIC_POSITIONS (alat)
Si               0.0000000000        0.0000000000        0.0000000000
Si               0.2585921788        0.2585921788        0.2585921788

     Writing config-only to output data dir ./tmp/vcrelax.save/ :
     XML data file
     NEW-OLD atomic charge density approx. for the potential

[...]

     Energy error            =      3.9E-02 Ry
     Gradient error          =      2.1E-33 Ry/Bohr
     Cell gradient error     =      1.6E+02 kbar

[...]

     enthalpy           old  =     -16.9815863563 Ry
     enthalpy           new  =     -17.0201776499 Ry

     CASE: enthalpy          _new < enthalpy          _old

[...]

     number of scf cycles    =   4
     number of bfgs steps    =   3

     enthalpy           old  =     -17.0350616478 Ry
     enthalpy           new  =     -17.0360997676 Ry

     CASE: enthalpy          _new < enthalpy          _old

     new trust radius        =       0.0062879697 bohr
     new conv_thr            =       0.0000000100 Ry

     new unit-cell volume =    266.37543 a.u.^3 (    39.47277 Ang^3 )
     density =      2.41975 g/cm^3

[...]

ATOMIC_POSITIONS (alat)
Si              -0.0000000000        0.0000000000       -0.0000000000
Si               0.2699190832        0.2699190832        0.2699190832

     Writing config-only to output data dir ./tmp/vcrelax.save/ :
     XML data file
     NEW-OLD atomic charge density approx. for the potential

[...]

     Threshold (ethr) on eigenvalues was too large:
     Diagonalizing with lowered threshold

     Davidson diagonalization with overlap
     ethr =  1.86E-08,  avg # of iterations =  2.4

[...]

     Energy error            =      3.3E-05 Ry
     Gradient error          =      8.4E-32 Ry/Bohr
     Cell gradient error     =      3.3E-01 kbar

     bfgs converged in   5 scf cycles and   4 bfgs steps
     (criteria: energy <  1.0E-04 Ry, force <  1.0E-03 Ry/Bohr, cell <  5.0E-01 kbar)

     End of BFGS Geometry Optimization

     Final enthalpy           =     -17.0361326910 Ry

     File ./tmp/vcrelax.bfgs deleted, as requested
Begin final coordinates
     new unit-cell volume =    266.37543 a.u.^3 (    39.47277 Ang^3 )
     density =      2.41975 g/cm^3

CELL_PARAMETERS (alat=  9.46000000)
  -0.539838166   0.000000000   0.539838166
  -0.000000000   0.539838166   0.539838166
  -0.539838166   0.539838166  -0.000000000

ATOMIC_POSITIONS (alat)
Si              -0.0000000000        0.0000000000       -0.0000000000
Si               0.2699190832        0.2699190832        0.2699190832
End final coordinates

     Writing config-only to output data dir ./tmp/vcrelax.save/ :
     XML data file

     Final scf calculation at the relaxed structure.
     The G-vectors are recalculated for the final unit cell
     Results may differ from those at the preceding step.

     Using Slab Decomposition

     bravais-lattice index     =            2
     lattice parameter (alat)  =       9.4600  a.u.
     unit-cell volume          =     266.3754 (a.u.)^3
     number of atoms/cell      =            2
     number of atomic types    =            1
     number of electrons       =         8.00
     number of Kohn-Sham states=            8
     kinetic-energy cutoff     =      40.0000  Ry
     charge density cutoff     =     160.0000  Ry
     scf convergence threshold =      1.0E-08
     mixing beta               =       0.7000
     number of iterations used =            8  plain     mixing
     press convergence thresh. =      5.0E-01
     Exchange-correlation= SLA  PW   NOGX NOGC
                           (   1   4   0   0   0   0   0)

     celldm(1)=   9.460000  celldm(2)=   0.000000  celldm(3)=   0.000000
     celldm(4)=   0.000000  celldm(5)=   0.000000  celldm(6)=   0.000000

     crystal axes: (cart. coord. in units of alat)
               a(1) = (  -0.539838   0.000000   0.539838 )
               a(2) = (  -0.000000   0.539838   0.539838 )
               a(3) = (  -0.539838   0.539838  -0.000000 )

     reciprocal axes: (cart. coord. in units 2 pi/alat)
               b(1) = ( -0.926204 -0.926204  0.926204 )
               b(2) = (  0.926204  0.926204  0.926204 )
               b(3) = ( -0.926204  0.926204 -0.926204 )

     PseudoPot. # 1 for Si read from file:
     ./PSEUDO/Si.LDA.upf
     MD5 check sum: 9e2d726316af3d4752eea8ab0afbb951
     Pseudo is Norm-conserving + core correction, Zval =  4.0
     Generated using ONCVPSP code by D. R. Hamann
     Using radial grid of 1510 points,  6 beta functions with:
                l(1) =   0
                l(2) =   0
                l(3) =   1
                l(4) =   1
                l(5) =   2
                l(6) =   2

     atomic species   valence    mass     pseudopotential
     Si                4.00    28.76000     Si( 1.00)

     48 Sym. Ops., with inversion, found (24 have fractional translation)

   Cartesian axes

     site n.     atom                  positions (alat units)
         1        Si     tau(   1) = (  -0.0000000   0.0000000  -0.0000000  )
         2        Si     tau(   2) = (   0.2699191   0.2699191   0.2699191  )

     number of k points=     8 (tetrahedron method)
                       cart. coord. in units 2pi/alat
        k(    1) = (   0.0000000   0.0000000   0.0000000), wk =   0.0312500
        k(    2) = (  -0.2315509   0.2315509  -0.2315509), wk =   0.2500000
        k(    3) = (   0.4631018  -0.4631018   0.4631018), wk =   0.1250000
        k(    4) = (   0.0000000   0.4631018   0.0000000), wk =   0.1875000
        k(    5) = (   0.6946526  -0.2315509   0.6946526), wk =   0.7500000
        k(    6) = (   0.4631018  -0.0000000   0.4631018), wk =   0.3750000
        k(    7) = (   0.0000000  -0.9262035   0.0000000), wk =   0.0937500
        k(    8) = (  -0.4631018  -0.9262035  -0.0000000), wk =   0.1875000

     Initial potential from superposition of free atoms

     starting charge       7.9989, renormalised to       8.0000
     Starting wfcs are    8 randomized atomic wfcs

     Self-consistent Calculation

[...]

     total energy              =     -17.03618040 Ry
     estimated scf accuracy    <       0.00000008 Ry

     iteration #  6     ecut=    40.00 Ry     beta= 0.70
     Davidson diagonalization with overlap
     ethr =  9.76E-10,  avg # of iterations =  2.2

     End of self-consistent calculation

[...]

          k = 0.0000-0.9262 0.0000 (  1138 PWs)   bands (ev):

[...]

          k =-0.4631-0.9262-0.0000 (  1144 PWs)   bands (ev):

    -1.4706  -1.4706   2.2770   2.2770  10.4042  10.4042  11.1896  11.1896

     the Fermi energy is     6.6238 ev

!    total energy              =     -17.03618042 Ry
     estimated scf accuracy    <          2.4E-09 Ry

     The total energy is the sum of the following terms:
     one-electron contribution =       4.95797399 Ry
     hartree contribution      =       1.10676341 Ry
     xc contribution           =      -6.22389044 Ry
     ewald contribution        =     -16.87702738 Ry

     convergence has been achieved in   6 iterations

     Forces acting on atoms (cartesian axes, Ry/au):

     atom    1 type  1   force =     0.00000000    0.00000000   -0.00000000
     atom    2 type  1   force =    -0.00000000   -0.00000000    0.00000000

     Total force =     0.000000     Total SCF correction =     0.000000

     Computing stress (Cartesian axis) and pressure

          total   stress  (Ry/bohr**3)                   (kbar)     P=        0.50
   0.00000337  -0.00000000  -0.00000000            0.50       -0.00       -0.00
  -0.00000000   0.00000337   0.00000000           -0.00        0.50        0.00
   0.00000000   0.00000000   0.00000337            0.00        0.00        0.50

     Writing all to output data dir ./tmp/vcrelax.save/ :
     XML data file, charge density, pseudopotentials, collected wavefunctions

     General routines

   This run was terminated on:  13:46:26   2Dec2024

   JOB DONE.